*Heading
 Simple cube compression analysis
** Job name: CubeAnalysis Model name: CubeModel
** Generated by: Abaqus/CAE Learning Edition 2025
*Preprint, echo=NO, model=NO, history=NO, contact=NO
**
** PARTS
**
*Part, name=Cube
*Node
      1,          10.,          10.,          10.
      2,          10.,          7.5,          10.
      3,          10.,           5.,          10.
      4,          10.,          2.5,          10.
      5,          10.,           0.,          10.
      6,          10.,          10.,          7.5
      7,          10.,          7.5,          7.5
      8,          10.,           5.,          7.5
      9,          10.,          2.5,          7.5
     10,          10.,           0.,          7.5
     11,          10.,          10.,           5.
     12,          10.,          7.5,           5.
     13,          10.,           5.,           5.
     14,          10.,          2.5,           5.
     15,          10.,           0.,           5.
     16,          10.,          10.,          2.5
     17,          10.,          7.5,          2.5
     18,          10.,           5.,          2.5
     19,          10.,          2.5,          2.5
     20,          10.,           0.,          2.5
     21,          10.,          10.,           0.
     22,          10.,          7.5,           0.
     23,          10.,           5.,           0.
     24,          10.,          2.5,           0.
     25,          10.,           0.,           0.
     26,          7.5,          10.,          10.
     27,          7.5,          7.5,          10.
     28,          7.5,           5.,          10.
     29,          7.5,          2.5,          10.
     30,          7.5,           0.,          10.
     31,          7.5,          10.,          7.5
     32,          7.5,          7.5,          7.5
     33,          7.5,           5.,          7.5
     34,          7.5,          2.5,          7.5
     35,          7.5,           0.,          7.5
     36,          7.5,          10.,           5.
     37,          7.5,          7.5,           5.
     38,          7.5,           5.,           5.
     39,          7.5,          2.5,           5.
     40,          7.5,           0.,           5.
     41,          7.5,          10.,          2.5
     42,          7.5,          7.5,          2.5
     43,          7.5,           5.,          2.5
     44,          7.5,          2.5,          2.5
     45,          7.5,           0.,          2.5
     46,          7.5,          10.,           0.
     47,          7.5,          7.5,           0.
     48,          7.5,           5.,           0.
     49,          7.5,          2.5,           0.
     50,          7.5,           0.,           0.
     51,           5.,          10.,          10.
     52,           5.,          7.5,          10.
     53,           5.,           5.,          10.
     54,           5.,          2.5,          10.
     55,           5.,           0.,          10.
     56,           5.,          10.,          7.5
     57,           5.,          7.5,          7.5
     58,           5.,           5.,          7.5
     59,           5.,          2.5,          7.5
     60,           5.,           0.,          7.5
     61,           5.,          10.,           5.
     62,           5.,          7.5,           5.
     63,           5.,           5.,           5.
     64,           5.,          2.5,           5.
     65,           5.,           0.,           5.
     66,           5.,          10.,          2.5
     67,           5.,          7.5,          2.5
     68,           5.,           5.,          2.5
     69,           5.,          2.5,          2.5
     70,           5.,           0.,          2.5
     71,           5.,          10.,           0.
     72,           5.,          7.5,           0.
     73,           5.,           5.,           0.
     74,           5.,          2.5,           0.
     75,           5.,           0.,           0.
     76,          2.5,          10.,          10.
     77,          2.5,          7.5,          10.
     78,          2.5,           5.,          10.
     79,          2.5,          2.5,          10.
     80,          2.5,           0.,          10.
     81,          2.5,          10.,          7.5
     82,          2.5,          7.5,          7.5
     83,          2.5,           5.,          7.5
     84,          2.5,          2.5,          7.5
     85,          2.5,           0.,          7.5
     86,          2.5,          10.,           5.
     87,          2.5,          7.5,           5.
     88,          2.5,           5.,           5.
     89,          2.5,          2.5,           5.
     90,          2.5,           0.,           5.
     91,          2.5,          10.,          2.5
     92,          2.5,          7.5,          2.5
     93,          2.5,           5.,          2.5
     94,          2.5,          2.5,          2.5
     95,          2.5,           0.,          2.5
     96,          2.5,          10.,           0.
     97,          2.5,          7.5,           0.
     98,          2.5,           5.,           0.
     99,          2.5,          2.5,           0.
    100,          2.5,           0.,           0.
    101,           0.,          10.,          10.
    102,           0.,          7.5,          10.
    103,           0.,           5.,          10.
    104,           0.,          2.5,          10.
    105,           0.,           0.,          10.
    106,           0.,          10.,          7.5
    107,           0.,          7.5,          7.5
    108,           0.,           5.,          7.5
    109,           0.,          2.5,          7.5
    110,           0.,           0.,          7.5
    111,           0.,          10.,           5.
    112,           0.,          7.5,           5.
    113,           0.,           5.,           5.
    114,           0.,          2.5,           5.
    115,           0.,           0.,           5.
    116,           0.,          10.,          2.5
    117,           0.,          7.5,          2.5
    118,           0.,           5.,          2.5
    119,           0.,          2.5,          2.5
    120,           0.,           0.,          2.5
    121,           0.,          10.,           0.
    122,           0.,          7.5,           0.
    123,           0.,           5.,           0.
    124,           0.,          2.5,           0.
    125,           0.,           0.,           0.
*Element, type=C3D8R
 1,  26,  27,  32,  31,   1,   2,   7,   6
 2,  27,  28,  33,  32,   2,   3,   8,   7
 3,  28,  29,  34,  33,   3,   4,   9,   8
 4,  29,  30,  35,  34,   4,   5,  10,   9
 5,  31,  32,  37,  36,   6,   7,  12,  11
 6,  32,  33,  38,  37,   7,   8,  13,  12
 7,  33,  34,  39,  38,   8,   9,  14,  13
 8,  34,  35,  40,  39,   9,  10,  15,  14
 9,  36,  37,  42,  41,  11,  12,  17,  16
10,  37,  38,  43,  42,  12,  13,  18,  17
11,  38,  39,  44,  43,  13,  14,  19,  18
12,  39,  40,  45,  44,  14,  15,  20,  19
13,  41,  42,  47,  46,  16,  17,  22,  21
14,  42,  43,  48,  47,  17,  18,  23,  22
15,  43,  44,  49,  48,  18,  19,  24,  23
16,  44,  45,  50,  49,  19,  20,  25,  24
17,  51,  52,  57,  56,  26,  27,  32,  31
18,  52,  53,  58,  57,  27,  28,  33,  32
19,  53,  54,  59,  58,  28,  29,  34,  33
20,  54,  55,  60,  59,  29,  30,  35,  34
21,  56,  57,  62,  61,  31,  32,  37,  36
22,  57,  58,  63,  62,  32,  33,  38,  37
23,  58,  59,  64,  63,  33,  34,  39,  38
24,  59,  60,  65,  64,  34,  35,  40,  39
25,  61,  62,  67,  66,  36,  37,  42,  41
26,  62,  63,  68,  67,  37,  38,  43,  42
27,  63,  64,  69,  68,  38,  39,  44,  43
28,  64,  65,  70,  69,  39,  40,  45,  44
29,  66,  67,  72,  71,  41,  42,  47,  46
30,  67,  68,  73,  72,  42,  43,  48,  47
31,  68,  69,  74,  73,  43,  44,  49,  48
32,  69,  70,  75,  74,  44,  45,  50,  49
33,  76,  77,  82,  81,  51,  52,  57,  56
34,  77,  78,  83,  82,  52,  53,  58,  57
35,  78,  79,  84,  83,  53,  54,  59,  58
36,  79,  80,  85,  84,  54,  55,  60,  59
37,  81,  82,  87,  86,  56,  57,  62,  61
38,  82,  83,  88,  87,  57,  58,  63,  62
39,  83,  84,  89,  88,  58,  59,  64,  63
40,  84,  85,  90,  89,  59,  60,  65,  64
41,  86,  87,  92,  91,  61,  62,  67,  66
42,  87,  88,  93,  92,  62,  63,  68,  67
43,  88,  89,  94,  93,  63,  64,  69,  68
44,  89,  90,  95,  94,  64,  65,  70,  69
45,  91,  92,  97,  96,  66,  67,  72,  71
46,  92,  93,  98,  97,  67,  68,  73,  72
47,  93,  94,  99,  98,  68,  69,  74,  73
48,  94,  95, 100,  99,  69,  70,  75,  74
49, 101, 102, 107, 106,  76,  77,  82,  81
50, 102, 103, 108, 107,  77,  78,  83,  82
51, 103, 104, 109, 108,  78,  79,  84,  83
52, 104, 105, 110, 109,  79,  80,  85,  84
53, 106, 107, 112, 111,  81,  82,  87,  86
54, 107, 108, 113, 112,  82,  83,  88,  87
55, 108, 109, 114, 113,  83,  84,  89,  88
56, 109, 110, 115, 114,  84,  85,  90,  89
57, 111, 112, 117, 116,  86,  87,  92,  91
58, 112, 113, 118, 117,  87,  88,  93,  92
59, 113, 114, 119, 118,  88,  89,  94,  93
60, 114, 115, 120, 119,  89,  90,  95,  94
61, 116, 117, 122, 121,  91,  92,  97,  96
62, 117, 118, 123, 122,  92,  93,  98,  97
63, 118, 119, 124, 123,  93,  94,  99,  98
64, 119, 120, 125, 124,  94,  95, 100,  99
*Nset, nset=AllCells, generate
   1,  125,    1
*Elset, elset=AllCells, generate
  1,  64,   1
** Section: SolidSection
*Solid Section, elset=AllCells, material=Steel
,
*End Part
**  
**
** ASSEMBLY
**
*Assembly, name=Assembly
**  
*Instance, name=Cube-1, part=Cube
*End Instance
**  
*Nset, nset=BottomFace, instance=Cube-1
  21,  22,  23,  24,  25,  46,  47,  48,  49,  50,  71,  72,  73,  74,  75,  96
  97,  98,  99, 100, 121, 122, 123, 124, 125
*Elset, elset=BottomFace, instance=Cube-1
 13, 14, 15, 16, 29, 30, 31, 32, 45, 46, 47, 48, 61, 62, 63, 64
*Elset, elset=_TopSurface_S3, internal, instance=Cube-1
  1,  2,  3,  4, 17, 18, 19, 20, 33, 34, 35, 36, 49, 50, 51, 52
*Surface, type=ELEMENT, name=TopSurface
_TopSurface_S3, S3
*End Assembly
** 
** MATERIALS
** 
*Material, name=Steel
*Density
 7.85e-09,
*Elastic
210000., 0.3
** 
** BOUNDARY CONDITIONS
** 
** Name: FixBottom Type: Symmetry/Antisymmetry/Encastre
*Boundary
BottomFace, ENCASTRE
** ----------------------------------------------------------------
** 
** STEP: LoadStep
** 
*Step, name=LoadStep, nlgeom=NO
*Static
0.1, 1., 1e-06, 1.
** 
** LOADS
** 
** Name: TopPressure   Type: Pressure
*Dsload
TopSurface, P, 100.
** 
** OUTPUT REQUESTS
** 
*Restart, write, frequency=0
** 
** FIELD OUTPUT: F-Output-1
** 
*Output, field
*Node Output
RF, U
*Element Output, directions=YES
S, 
** 
** HISTORY OUTPUT: H-Output-1
** 
*Output, history, variable=PRESELECT
*End Step
