*Heading
 Experiment 4: PlasticityTest - 100kN vertical load (plasticity)
** Job name: Experiment4_Job3 Model name: Experiment4_TO_Specimen
** Generated by: Abaqus/CAE Learning Edition 2025
*Preprint, echo=NO, model=NO, history=NO, contact=NO
**
** PARTS
**
*Part, name=TO_Specimen
*Node
      1,           5.,   106.169998,          25.
      2,   32.2999992,          28.,          25.
      3,   32.2999992,          28.,           0.
      4,           5.,   106.169998,           0.
      5,   32.2999992,           0.,          25.
      6,   32.2999992,           0.,           0.
      7,   14.3000002,           0.,          25.
      8,   14.3000002,           0.,           0.
      9,   14.3000002,          28.,          25.
     10,   14.3000002,          28.,           0.
     11,           4.,          63.,          25.
     12,           4.,          63.,           0.
     13,          -4.,          63.,          25.
     14,          -4.,          63.,           0.
     15,  -14.3000002,          28.,          25.
     16,  -14.3000002,          28.,           0.
     17,  -14.3000002,           0.,          25.
     18,  -14.3000002,           0.,           0.
     19,  -32.2999992,           0.,          25.
     20,  -32.2999992,           0.,           0.
     21,  -32.2999992,          28.,          25.
     22,  -32.2999992,          28.,           0.
     23,          -5.,   106.169998,          25.
     24,          -5.,   106.169998,           0.
     25,          -9.,   118.169998,          25.
     26,          -9.,   118.169998,           0.
     27,          -9.,   146.169998,          25.
     28,          -9.,   146.169998,           0.
     29,   -6.3499999,   132.169998,           0.
     30,   -6.3499999,   132.169998,          25.
     31,  -29.6499996,          14.,           0.
     32,  -29.6499996,          14.,          25.
     33,   16.9500008,          14.,           0.
     34,   16.9500008,          14.,          25.
     35,           9.,   146.169998,          25.
     36,           9.,   146.169998,           0.
     37,           9.,   118.169998,           0.
     38,           9.,   118.169998,          25.
     39,   8.61260128,   96.3538055,          25.
     40,   12.7251291,   86.7388458,          25.
     41,   17.6144276,   77.4937744,          25.
     42,   22.6663532,   68.3349304,          25.
     43,   27.0008907,   58.8227692,          25.
     44,   29.8121796,   48.7587166,          25.
     45,   31.3623562,   38.4176674,          25.
     46,   32.2999992,          28.,    16.666666
     47,   32.2999992,          28.,   8.33333302
     48,   31.3623562,   38.4176674,           0.
     49,   29.8121796,   48.7587166,           0.
     50,   27.0008907,   58.8227692,           0.
     51,   22.6663532,   68.3349304,           0.
     52,   17.6144276,   77.4937744,           0.
     53,   12.7251291,   86.7388458,           0.
     54,   8.61260128,   96.3538055,           0.
     55,           5.,   106.169998,   8.33333302
     56,           5.,   106.169998,    16.666666
     57,   32.2999992,    18.666666,          25.
     58,   32.2999992,   9.33333302,          25.
     59,   32.2999992,           0.,    16.666666
     60,   32.2999992,           0.,   8.33333302
     61,   32.2999992,   9.33333302,           0.
     62,   32.2999992,    18.666666,           0.
     63,   23.2999992,           0.,          25.
     64,   14.3000002,           0.,    16.666666
     65,   14.3000002,           0.,   8.33333302
     66,   23.2999992,           0.,           0.
     67,   14.3000002,   9.33333302,          25.
     68,   14.3000002,    18.666666,          25.
     69,   14.3000002,          28.,    16.666666
     70,   14.3000002,          28.,   8.33333302
     71,   14.3000002,    18.666666,           0.
     72,   14.3000002,   9.33333302,           0.
     73,   17.1394978,   37.3322144,          25.
     74,   18.8933525,   46.9217186,          25.
     75,   19.3187962,   56.6628952,          25.
     76,   18.6643581,   66.3930359,          25.
     77,   17.3261356,   73.3417282,          25.
     78,   15.9770784,   76.6049728,          25.
     79,   14.7442741,   77.8452606,          25.
     80,   13.0143852,   77.6564713,          25.
     81,   11.2515936,   75.9740448,          25.
     82,    8.5628624,   71.8541336,          25.
     83,           4.,          63.,    16.666666
     84,           4.,          63.,   8.33333302
     85,    8.5628643,   71.8541412,           0.
     86,   11.2515936,   75.9740448,           0.
     87,   13.0143843,   77.6564713,           0.
     88,   14.7442713,   77.8452606,           0.
     89,   15.9770765,   76.6049805,           0.
     90,   17.3261356,   73.3417282,           0.
     91,   18.6643562,   66.3930359,           0.
     92,   19.3187962,   56.6628952,           0.
     93,   18.8933525,   46.9217224,           0.
     94,   17.1394997,   37.3322182,           0.
     95,          -4.,          63.,    16.666666
     96,          -4.,          63.,   8.33333302
     97,  -8.56286812,   71.8541412,          25.
     98,  -11.2515984,   75.9740524,          25.
     99,    -13.01439,   77.6564713,          25.
    100,  -14.7442799,   77.8452606,          25.
    101,  -15.9770813,   76.6049728,          25.
    102,  -17.3261375,   73.3417206,          25.
    103,  -18.6643581,   66.3930283,          25.
    104,  -19.3187962,   56.6628952,          25.
    105,  -18.8933525,   46.9217224,          25.
    106,  -17.1394997,   37.3322182,          25.
    107,  -14.3000002,          28.,    16.666666
    108,  -14.3000002,          28.,   8.33333302
    109,  -17.1394997,   37.3322182,           0.
    110,  -18.8933525,   46.9217224,           0.
    111,  -19.3187962,    56.662899,           0.
    112,  -18.6643562,   66.3930359,           0.
    113,  -17.3261356,   73.3417282,           0.
    114,  -15.9770756,   76.6049805,           0.
    115,  -14.7442713,   77.8452606,           0.
    116,  -13.0143824,   77.6564713,           0.
    117,  -11.2515917,   75.9740448,           0.
    118,   -8.5628624,   71.8541336,           0.
    119,  -14.3000002,    18.666666,          25.
    120,  -14.3000002,   9.33333302,          25.
    121,  -14.3000002,           0.,    16.666666
    122,  -14.3000002,           0.,   8.33333302
    123,  -14.3000002,   9.33333302,           0.
    124,  -14.3000002,    18.666666,           0.
    125,  -23.2999992,           0.,          25.
    126,  -32.2999992,           0.,    16.666666
    127,  -32.2999992,           0.,   8.33333302
    128,  -23.2999992,           0.,           0.
    129,  -32.2999992,   9.33333302,          25.
    130,  -32.2999992,    18.666666,          25.
    131,  -32.2999992,          28.,    16.666666
    132,  -32.2999992,          28.,   8.33333302
    133,  -32.2999992,    18.666666,           0.
    134,  -32.2999992,   9.33333302,           0.
    135,  -31.3623562,   38.4176674,          25.
    136,  -29.8121796,   48.7587166,          25.
    137,  -27.0008907,   58.8227654,          25.
    138,  -22.6663532,   68.3349304,          25.
    139,  -17.6144276,   77.4937744,          25.
    140,  -12.7251291,   86.7388458,          25.
    141,  -8.61260128,   96.3538055,          25.
    142,          -5.,   106.169998,    16.666666
    143,          -5.,   106.169998,   8.33333302
    144,  -8.61260128,   96.3538055,           0.
    145,  -12.7251291,   86.7388458,           0.
    146,  -17.6144295,   77.4937744,           0.
    147,  -22.6663532,   68.3349304,           0.
    148,  -27.0008907,   58.8227692,           0.
    149,  -29.8121796,   48.7587166,           0.
    150,  -31.3623562,   38.4176674,           0.
    151,          -9.,   118.169998,    16.666666
    152,          -9.,   118.169998,   8.33333302
    153,          -9.,   127.503334,          25.
    154,          -9.,    136.83667,          25.
    155,          -9.,   146.169998,    16.666666
    156,          -9.,   146.169998,   8.33333302
    157,          -9.,    136.83667,           0.
    158,          -9.,   127.503334,           0.
    159,  -4.49012804,   127.679871,           0.
    160,           0.,       125.82,           0.
    161,   4.49012804,   127.679871,           0.
    162,    6.3499999,   132.169998,           0.
    163,   4.49012804,   136.660126,           0.
    164,           0.,   138.520004,           0.
    165,  -4.49012804,   136.660126,           0.
    166,  -4.49012804,   136.660126,          25.
    167,           0.,   138.520004,          25.
    168,   4.49012804,   136.660126,          25.
    169,    6.3499999,   132.169998,          25.
    170,   4.49012804,   127.679871,          25.
    171,           0.,       125.82,          25.
    172,  -4.49012804,   127.679871,          25.
    173,  -27.7901287,   9.50987148,           0.
    174,  -23.2999992,    7.6500001,           0.
    175,  -18.8098717,   9.50987148,           0.
    176,  -16.9500008,          14.,           0.
    177,  -18.8098717,   18.4901276,           0.
    178,  -23.2999992,   20.3500004,           0.
    179,  -27.7901287,   18.4901276,           0.
    180,  -27.7901287,   18.4901276,          25.
    181,  -23.2999992,   20.3500004,          25.
    182,  -18.8098717,   18.4901276,          25.
    183,  -16.9500008,          14.,          25.
    184,  -18.8098717,   9.50987148,          25.
    185,  -23.2999992,    7.6500001,          25.
    186,  -27.7901287,   9.50987148,          25.
    187,   18.8098717,   9.50987148,           0.
    188,   23.2999992,    7.6500001,           0.
    189,   27.7901287,   9.50987148,           0.
    190,   29.6499996,          14.,           0.
    191,   27.7901287,   18.4901276,           0.
    192,   23.2999992,   20.3500004,           0.
    193,   18.8098717,   18.4901276,           0.
    194,   18.8098717,   18.4901276,          25.
    195,   23.2999992,   20.3500004,          25.
    196,   27.7901287,   18.4901276,          25.
    197,   29.6499996,          14.,          25.
    198,   27.7901287,   9.50987148,          25.
    199,   23.2999992,    7.6500001,          25.
    200,   18.8098717,   9.50987148,          25.
    201,           0.,   146.169998,          25.
    202,           9.,   146.169998,    16.666666
    203,           9.,   146.169998,   8.33333302
    204,           0.,   146.169998,           0.
    205,           9.,    136.83667,           0.
    206,           9.,   127.503334,           0.
    207,           9.,   118.169998,   8.33333302
    208,           9.,   118.169998,    16.666666
    209,           9.,   127.503334,          25.
    210,           9.,    136.83667,          25.
    211,   8.61260128,   96.3538055,    16.666666
    212,   12.7251291,   86.7388458,    16.666666
    213,   17.6144276,   77.4937744,    16.666666
    214,   22.6663532,   68.3349304,    16.666666
    215,   27.0008907,   58.8227692,    16.666666
    216,   29.8121796,   48.7587166,    16.666666
    217,   31.3623562,   38.4176674,    16.666666
    218,   8.61260128,   96.3538055,   8.33333302
    219,   12.7251291,   86.7388458,   8.33333302
    220,   17.6144276,   77.4937744,   8.33333302
    221,   22.6663532,   68.3349304,   8.33333302
    222,   27.0008907,   58.8227692,   8.33333302
    223,   29.8121796,   48.7587166,   8.33333302
    224,   31.3623562,   38.4176674,   8.33333302
    225,   32.2999992,    18.666666,    16.666666
    226,   32.2999992,   9.33333302,    16.666666
    227,   32.2999992,    18.666666,   8.33333302
    228,   32.2999992,   9.33333302,   8.33333302
    229,   23.2999992,           0.,    16.666666
    230,   23.2999992,           0.,   8.33333302
    231,   14.3000002,   9.33333302,    16.666666
    232,   14.3000002,    18.666666,    16.666666
    233,   14.3000002,   9.33333302,   8.33333302
    234,   14.3000002,    18.666666,   8.33333302
    235,   17.1394978,   37.3322182,    16.666666
    236,   18.8933525,   46.9217224,    16.666666
    237,   19.3187962,   56.6628952,    16.666666
    238,   18.6643581,   66.3930359,    16.666666
    239,   17.3261356,   73.3417282,    16.666666
    240,   15.9770775,   76.6049728,    16.666666
    241,   14.7442732,   77.8452606,    16.666666
    242,   13.0143843,   77.6564713,    16.666666
    243,   11.2515936,   75.9740448,    16.666666
    244,   8.56286335,   71.8541336,    16.666666
    245,   17.1394978,   37.3322182,   8.33333302
    246,   18.8933525,   46.9217224,   8.33333302
    247,   19.3187962,   56.6628952,   8.33333302
    248,   18.6643581,   66.3930359,   8.33333302
    249,   17.3261356,   73.3417282,   8.33333302
    250,   15.9770775,   76.6049728,   8.33333302
    251,   14.7442722,   77.8452606,   8.33333302
    252,   13.0143843,   77.6564713,   8.33333302
    253,   11.2515936,   75.9740448,   8.33333302
    254,    8.5628643,   71.8541336,   8.33333302
    255,  -8.56286621,   71.8541412,    16.666666
    256,  -11.2515984,   75.9740524,    16.666666
    257,  -13.0143871,   77.6564713,    16.666666
    258,   -14.744276,   77.8452606,    16.666666
    259,  -15.9770794,   76.6049728,    16.666666
    260,  -17.3261375,   73.3417206,    16.666666
    261,  -18.6643581,   66.3930283,    16.666666
    262,  -19.3187962,   56.6628952,    16.666666
    263,  -18.8933525,   46.9217224,    16.666666
    264,  -17.1394978,   37.3322182,    16.666666
    265,  -8.56286621,   71.8541412,   8.33333302
    266,  -11.2515936,   75.9740448,   8.33333302
    267,  -13.0143862,   77.6564713,   8.33333302
    268,  -14.7442741,   77.8452606,   8.33333302
    269,  -15.9770784,   76.6049728,   8.33333302
    270,  -17.3261356,   73.3417282,   8.33333302
    271,  -18.6643562,   66.3930359,   8.33333302
    272,  -19.3187962,    56.662899,   8.33333302
    273,  -18.8933525,   46.9217224,   8.33333302
    274,  -17.1394978,   37.3322182,   8.33333302
    275,  -14.3000002,    18.666666,    16.666666
    276,  -14.3000002,   9.33333302,    16.666666
    277,  -14.3000002,    18.666666,   8.33333302
    278,  -14.3000002,   9.33333302,   8.33333302
    279,  -23.2999992,           0.,    16.666666
    280,  -23.2999992,           0.,   8.33333302
    281,  -32.2999992,   9.33333302,    16.666666
    282,  -32.2999992,    18.666666,    16.666666
    283,  -32.2999992,   9.33333302,   8.33333302
    284,  -32.2999992,    18.666666,   8.33333302
    285,  -31.3623562,   38.4176674,    16.666666
    286,  -29.8121796,   48.7587166,    16.666666
    287,  -27.0008907,   58.8227654,    16.666666
    288,  -22.6663532,   68.3349304,    16.666666
    289,  -17.6144276,   77.4937744,    16.666666
    290,  -12.7251301,   86.7388458,    16.666666
    291,  -8.61260128,   96.3538055,    16.666666
    292,  -31.3623562,   38.4176674,   8.33333302
    293,  -29.8121796,   48.7587166,   8.33333302
    294,  -27.0008907,   58.8227654,   8.33333302
    295,  -22.6663532,   68.3349304,   8.33333302
    296,  -17.6144276,   77.4937744,   8.33333302
    297,  -12.7251301,   86.7388458,   8.33333302
    298,  -8.61260128,   96.3538055,   8.33333302
    299,          -9.,   127.503334,    16.666666
    300,          -9.,    136.83667,    16.666666
    301,          -9.,   127.503334,   8.33333302
    302,          -9.,    136.83667,   8.33333302
    303,  -4.49012899,   136.660126,           5.
    304,           0.,   138.520004,           5.
    305,   4.49012899,   136.660126,           5.
    306,    6.3499999,   132.169998,           5.
    307,   4.49012756,   127.679871,           5.
    308,           0.,       125.82,           5.
    309,  -4.49012756,   127.679871,           5.
    310,   -6.3499999,   132.169998,           5.
    311,  -4.49012899,   136.660126,          10.
    312,           0.,   138.520004,          10.
    313,   4.49012899,   136.660126,          10.
    314,    6.3499999,   132.169998,          10.
    315,   4.49012756,   127.679871,          10.
    316,           0.,       125.82,          10.
    317,  -4.49012756,   127.679871,          10.
    318,   -6.3499999,   132.169998,          10.
    319,  -4.49012899,   136.660126,          15.
    320,           0.,   138.520004,          15.
    321,   4.49012899,   136.660126,          15.
    322,    6.3499999,   132.169998,          15.
    323,   4.49012756,   127.679871,          15.
    324,           0.,       125.82,          15.
    325,  -4.49012756,   127.679871,          15.
    326,   -6.3499999,   132.169998,          15.
    327,  -4.49012899,   136.660126,          20.
    328,           0.,   138.520004,          20.
    329,   4.49012899,   136.660126,          20.
    330,    6.3499999,   132.169998,          20.
    331,   4.49012756,   127.679871,          20.
    332,           0.,       125.82,          20.
    333,  -4.49012756,   127.679871,          20.
    334,   -6.3499999,   132.169998,          20.
    335,  -27.7901287,   18.4901276,           5.
    336,  -23.2999992,   20.3500004,           5.
    337,  -18.8098717,   18.4901276,           5.
    338,  -16.9500008,          14.,           5.
    339,  -18.8098717,   9.50987148,           5.
    340,  -23.2999992,    7.6500001,           5.
    341,  -27.7901287,   9.50987148,           5.
    342,  -29.6499996,          14.,           5.
    343,  -27.7901287,   18.4901276,          10.
    344,  -23.2999992,   20.3500004,          10.
    345,  -18.8098717,   18.4901276,          10.
    346,  -16.9500008,          14.,          10.
    347,  -18.8098717,   9.50987148,          10.
    348,  -23.2999992,    7.6500001,          10.
    349,  -27.7901287,   9.50987148,          10.
    350,  -29.6499996,          14.,          10.
    351,  -27.7901287,   18.4901276,          15.
    352,  -23.2999992,   20.3500004,          15.
    353,  -18.8098717,   18.4901276,          15.
    354,  -16.9500008,          14.,          15.
    355,  -18.8098717,   9.50987148,          15.
    356,  -23.2999992,    7.6500001,          15.
    357,  -27.7901287,   9.50987148,          15.
    358,  -29.6499996,          14.,          15.
    359,  -27.7901287,   18.4901276,          20.
    360,  -23.2999992,   20.3500004,          20.
    361,  -18.8098717,   18.4901276,          20.
    362,  -16.9500008,          14.,          20.
    363,  -18.8098717,   9.50987148,          20.
    364,  -23.2999992,    7.6500001,          20.
    365,  -27.7901287,   9.50987148,          20.
    366,  -29.6499996,          14.,          20.
    367,   18.8098717,   18.4901276,           5.
    368,   23.2999992,   20.3500004,           5.
    369,   27.7901287,   18.4901276,           5.
    370,   29.6499996,          14.,           5.
    371,   27.7901287,   9.50987148,           5.
    372,   23.2999992,    7.6500001,           5.
    373,   18.8098717,   9.50987148,           5.
    374,   16.9500008,          14.,           5.
    375,   18.8098717,   18.4901276,          10.
    376,   23.2999992,   20.3500004,          10.
    377,   27.7901287,   18.4901276,          10.
    378,   29.6499996,          14.,          10.
    379,   27.7901287,   9.50987148,          10.
    380,   23.2999992,    7.6500001,          10.
    381,   18.8098717,   9.50987148,          10.
    382,   16.9500008,          14.,          10.
    383,   18.8098717,   18.4901276,          15.
    384,   23.2999992,   20.3500004,          15.
    385,   27.7901287,   18.4901276,          15.
    386,   29.6499996,          14.,          15.
    387,   27.7901287,   9.50987148,          15.
    388,   23.2999992,    7.6500001,          15.
    389,   18.8098717,   9.50987148,          15.
    390,   16.9500008,          14.,          15.
    391,   18.8098717,   18.4901276,          20.
    392,   23.2999992,   20.3500004,          20.
    393,   27.7901287,   18.4901276,          20.
    394,   29.6499996,          14.,          20.
    395,   27.7901287,   9.50987148,          20.
    396,   23.2999992,    7.6500001,          20.
    397,   18.8098717,   9.50987148,          20.
    398,   16.9500008,          14.,          20.
    399,           0.,   146.169998,    16.666666
    400,           0.,   146.169998,   8.33333302
    401,   13.0836449,    80.150238,           0.
    402,  -13.0262089,   80.2145615,           0.
    403,   10.2636337,   78.7761307,           0.
    404,  -10.0281134,   79.0225601,           0.
    405,   18.8019753,    5.2986412,           0.
    406,   26.5856075,   23.0363274,           0.
    407,  -27.7980251,    5.2986412,           0.
    408,  -20.1613789,   23.0349464,           0.
    409,   4.49802542,   140.871353,           0.
    410,   -3.2144587,   122.986069,           0.
    411,    3.2119453,   122.987907,           0.
    412,  -4.49802542,   140.871353,           0.
    413,   20.1577091,   23.0325203,           0.
    414,  -26.5841026,   23.0317822,           0.
    415,   27.7980251,    5.2986412,           0.
    416,  -18.8019753,    5.2986412,           0.
    417,   7.34544373,   75.9682312,           0.
    418,  -6.55486441,   76.4260254,           0.
    419,    10.023221,   82.4797134,           0.
    420,  -9.83941269,   82.8852463,           0.
    421,   6.74749041,   80.5000763,           0.
    422,   -6.2500186,   81.5444565,           0.
    423,   4.28152037,    71.872612,           0.
    424,  -1.37596226,   71.6735229,           0.
    425,   2.98730326,   76.8933716,           0.
    426,  -1.78450835,   79.0245514,           0.
    427,   2.52729082,   82.9348526,           0.
    428,  -2.27323771,   85.2924576,           0.
    429,   7.13620281,     86.47612,           0.
    430,  -7.14609098,   87.3366699,           0.
    431,   2.11015558,   89.9910202,           0.
    432,   23.6408615,   29.6364555,           0.
    433,   -23.641222,   29.6361027,           0.
    434, -0.000418925018,   115.775665,           0.
    435,  -3.21751022,   91.3315353,           0.
    436, -0.184559107,    97.728363,           0.
    437,  -13.0924711,   80.1606445,          25.
    438,   13.0807066,   80.1028366,          25.
    439,  -10.2516174,   78.9675751,          25.
    440,   10.1622305,   78.6501694,          25.
    441,   20.1613789,   23.0349464,          25.
    442,   27.7980251,    5.2986412,          25.
    443,  -26.5854263,   23.0358276,          25.
    444,  -18.8019753,    5.2986412,          25.
    445,    3.2144587,   122.986069,          25.
    446,  -4.49802542,   140.871353,          25.
    447,   -3.2119453,   122.987907,          25.
    448,   4.49802542,   140.871353,          25.
    449,   18.8019753,    5.2986412,          25.
    450,  -27.7980251,    5.2986412,          25.
    451,   26.5841026,   23.0317822,          25.
    452,  -20.1576118,   23.0322514,          25.
    453,  -7.09762573,   76.6352997,          25.
    454,   6.84371758,   75.7238083,          25.
    455,   9.92712879,   81.9906616,          25.
    456,  -10.0703716,   82.6720963,          25.
    457,   6.30897379,   80.1192245,          25.
    458,  -6.84299564,   81.2264938,          25.
    459,   2.42990947,   70.5987244,          25.
    460,  -2.98414278,   73.0079117,          25.
    461,  -23.6408157,   29.6363277,          25.
    462,    23.641222,   29.6361008,          25.
    463, 0.000418925018,   115.775665,          25.
    464,  -2.77813959,    79.099411,          25.
    465,     1.927266,   76.9475784,          25.
    466,  -3.47276926,   83.8619385,          25.
    467,   1.67316914,   83.2881546,          25.
    468,  -7.30655098,   86.7013092,          25.
    469,   7.07045937,   84.3071976,          25.
    470,   4.73327684,   89.5571518,          25.
    471,  -2.09195542,   89.5104294,          25.
    472,  0.440220207,   97.3525314,          25.
    473,           9.,    136.83667,    16.666666
    474,           9.,   127.503334,    16.666666
    475,           9.,    136.83667,   8.33333302
    476,           9.,   127.503334,   8.33333302
    477,  -9.76110649,   81.8790436,   21.7503624
    478,  -10.3260622,   79.2869644,   21.9899845
    479,  -14.4691458,    80.623909,   21.0206242
    480,  -1.97612798,   80.8784943,   4.01608849
    481,  -3.09366035,   74.4008484,   4.52258301
    482,  -8.99079514,   77.7651978,   2.60249972
    483,  -9.86757565,   80.6902084,   4.16350985
    484,  0.856345534,   70.1768646,    9.3008709
    485,   3.11235428,   74.3563309,   3.73942971
    486,  -1.41360724,   76.9980927,   8.89613247
    487,   2.47705793,   121.446968,   18.4154396
    488,   -5.1166296,   81.7295609,   8.52034664
    489,   7.51274538,   79.2732849,   13.9294767
    490,   5.60881901,   87.4945297,   11.6407194
    491,  0.141866267,   83.2550583,   14.8823566
    492,   7.02987051,   85.9021454,   20.9823475
    493,   5.28914309,   80.7239227,   9.40265465
    494, -0.0436098464,   95.9104156,   12.4775658
    495, -0.0689702258,   88.3159866,   12.4124937
    496,   2.61716485,   91.7224197,   17.7699776
    497,  -6.37066746,   85.6392441,   3.80082607
    498,  -5.39683437,   87.3480682,   12.1894999
    499,  -3.00972772,   113.344849,   14.6293087
    500,  -1.90880585,   121.246422,    12.496685
    501,  -8.73001575,    78.892662,   11.9865799
    502,  -3.88347077,   80.4555664,   16.1611156
    503,   1.17683625,   112.807793,   15.8750505
    504,  -2.06901407,    88.075119,   18.5293255
    505,  -5.32039213,   83.0929718,   21.0826588
    506,  -5.49625731,   90.6605988,   21.4455929
    507,  0.703738868,   83.0208435,   20.7567978
    508,  -6.95170593,   77.4486847,   20.7813148
    509,   3.64182043,   122.785858,     9.662323
    510,  -1.26787066,   114.494148,   6.44481421
    511,  0.404006809,   75.3203964,    19.547369
    512,   3.02948642,   70.5161362,   20.6269684
    513, -0.911658764,   68.4206161,   19.9570618
    514, -0.987739921,   72.2194748,   13.8665342
    515,   6.16424751,   78.2528687,   21.2197475
    516,    5.9750123,   77.0498123,   4.78011274
    517,   8.10328388,   81.4527969,   3.31773829
    518,     3.223351,   81.5568619,    4.1205759
    519,  -5.20055294,   139.782089,   13.0494652
    520,   12.3313646,   80.7373123,   3.19379735
    521,   6.49681187,   91.2559891,   4.75096512
    522,   2.35843158,   88.1691742,   6.61548519
    523,  -19.8745728,   25.3462811,   19.1619186
    524,   3.49678755,   68.7975311,   4.74223423
    525,  -5.78948021,   123.259285,   5.74489927
    526, -0.681230247,    84.080162,   9.87752056
    527,  -1.49757695,   84.8985062,   4.91371965
    528,  -1.37224734,   93.4172592,   5.63219881
    529,  -6.69723177,   91.6144257,    4.6738658
    530,  -13.1811552,   81.5961761,   4.30037642
    531,   4.44620466,   140.658417,   6.53843212
    532,   3.50697255,   139.973648,   3.04903316
    533,   11.5116854,   80.4889908,   21.9138012
    534,   27.3901882,   5.10727406,   4.94462633
    535,  -2.69288492,   124.900185,   17.2598801
    536,   21.0599632,   5.35355377,   13.4843788
    537,  -23.4380989,   4.95103788,   17.7329788
    538,   23.5864277,   51.7713394,   5.70838213
    539,   23.9275284,   51.8753548,   12.6835413
    540,   24.0353584,   42.0002899,   5.60010719
    541,   24.0600815,   42.8049583,    12.336421
    542,   2.89997149,   140.848206,   12.6912355
    543,   23.2500668,   28.2560024,   12.7020588
    544,  -26.0608292,   23.2142773,   11.4624653
    545,  -29.1348877,   22.9725342,   21.0639362
    546,   23.6576481,   52.9370079,   20.5061016
    547,   25.2523613,   42.8172112,   18.5493431
    548,  -23.5510578,   52.2486305,   20.5941734
    549,  -24.9169827,   42.9694366,   18.2335186
    550,  -23.9275284,   51.8753433,   12.6835413
    551,   27.3334122,    5.6288147,   12.0101805
    552,   26.7939453,   23.9557934,   20.2597008
    553,   19.7633533,    24.372179,   20.9084225
    554,   26.7655582,   24.5395355,   4.79051971
    555,  -27.0924091,    25.108139,   5.60639429
    556,  -20.5853119,   3.55662441,    13.775815
    557,  -26.9171734,   4.83171701,    12.078846
    558,  -23.1361446,   33.2003593,   12.4314098
    559,  -24.1207447,   41.8359795,   12.7145033
    560,  -27.6625881,   4.81742144,   6.16282272
    561,   27.5904236,   5.28076887,   18.5844154
    562,  -18.9820881,   22.5467873,   11.5385275
    563,   21.3973064,   25.3197632,   6.02952099
    564,  -23.5852242,   40.7848778,   6.02560425
    565,  -23.8793087,   51.0731926,   5.05479908
    566,  -19.1582603,   24.7206688,   5.79336119
    567,    4.1753788,   124.886368,   22.0123348
    568,  -4.76964903,   141.532501,   19.3668938
    569,  -16.4070339,   11.3271494,   7.33078861
*Element, type=C3D4
   1, 456, 477, 468, 458
   2, 477, 478, 479, 257
   3, 303, 400, 311, 312
   4, 333, 151, 447,  25
   5, 439, 478, 437, 477
   6, 480, 481, 482, 426
   7, 422, 480, 483, 482
   8, 481, 484, 485, 486
   9, 482, 486, 265, 481
  10, 487, 151, 463, 447
  11, 482, 480, 483, 488
  12, 486, 482, 480, 481
  13, 489, 490, 491, 492
  14, 490, 493, 219, 489
  15, 490, 494, 495, 496
  16, 490, 496, 211, 218
  17, 233, 381,  65, 373
  18, 490, 496, 212, 211
  19, 497, 480, 488, 483
  20, 497, 498, 297, 488
  21, 422, 497, 480, 428
  22, 497, 483, 420, 422
  23, 151, 487, 499, 500
  24, 498, 501, 488, 502
  25, 487, 499, 500, 503
  26, 498, 488, 501, 297
  27, 498, 504, 495, 494
  28, 290, 498, 504, 505
  29, 504, 290, 506, 291
  30,  40, 438, 241, 213
  31, 507, 504, 491, 502
  32, 502, 504, 491, 498
  33, 477, 508, 505, 458
  34, 477, 468, 458, 505
  35, 477, 456, 468, 140
  36, 477, 505, 508, 502
  37, 504, 505, 466, 506
  38, 466, 506, 471, 504
  39, 308, 434, 509, 510
  40, 505, 290, 506, 504
  41, 511, 512, 513, 514
  42, 459, 511, 513, 460
  43, 489, 511, 507, 491
  44, 511, 491, 489, 514
  45, 511, 502, 507, 491
  46, 511, 512, 244, 515
  47, 511, 512, 514, 244
  48, 516, 403, 421, 517
  49, 421, 518, 516, 517
  50, 400, 311, 312, 519
  51, 509, 476, 315, 323
  52, 518, 421, 429, 517
  53, 427, 518, 421, 429
  54, 419, 517, 520, 429
  55, 520, 429,  53, 419
  56, 490, 493, 517, 219
  57, 517, 521, 429, 522
  58, 523, 443, 452, 461
  59, 485,  85, 423, 417
  60, 485, 480, 486, 516
  61, 480, 481, 426, 425
  62, 481, 482, 118, 265
  63, 485, 484, 424, 524
  64, 481, 486, 265, 484
  65, 510, 500, 503, 509
  66, 510, 500, 308, 525
  67, 510, 525, 434,  26
  68, 510, 143,  55, 503
  69, 510, 434,   4,  24
  70,   4, 510, 207, 434
  71, 510, 434,  24,  26
  72, 485, 486, 484, 516
  73, 484, 485, 516, 524
  74, 481, 485, 484, 424
  75, 481, 482, 418, 118
  76, 486, 488, 501, 502
  77, 484, 514, 489, 493
  78, 486, 484, 516, 493
  79, 484,  96, 265, 481
  80, 315, 476, 307, 306
  81, 517, 219, 521, 522
  82, 490, 493, 491, 526
  83, 498, 488, 526, 502
  84, 498, 527, 528, 522
  85, 498, 494, 291, 504
  86, 490, 496, 218, 494
  87, 498, 491, 502, 526
  88, 492, 507, 489, 515
  89, 492, 470, 496, 504
  90, 490, 492, 496, 495
  91, 490, 492, 489, 212
  92, 504, 491, 495, 492
  93, 490, 495, 494, 522
  94, 528, 529, 435, 527
  95, 528, 218, 494, 522
  96, 528, 431, 522, 435
  97, 436, 494, 298, 528
  98, 230, 372, 381, 380
  99, 528, 529, 298, 144
 100, 528, 529, 144, 435
 101, 506, 496, 471, 504
 102, 496, 291, 506, 472
 103, 496, 471, 504, 470
 104, 530, 501, 267, 266
 105, 496, 470, 492,  39
 106, 496, 470,  39, 472
 107, 496, 218, 494, 211
 108, 492, 491, 507, 504
 109, 495, 492, 496, 504
 110, 531, 205, 305, 532
 111, 490, 492, 212, 496
 112, 496, 291, 494, 504
 113, 439, 477, 437, 456
 114, 485, 423, 524, 424
 115, 485, 516, 425, 480
 116, 484, 514, 244, 489
 117, 486, 480, 493, 516
 118, 514, 486, 493, 484
 119, 254, 493, 253, 516
 120, 493, 252, 520, 219
 121, 517, 516, 493, 518
 122, 493, 526, 518, 480
 123, 486, 514, 501, 265
 124, 486, 488, 502, 526
 125, 420, 297, 483, 497
 126, 497, 480, 428, 527
 127, 501, 482, 483, 488
 128, 249, 220, 221,  51
 129, 488, 486, 482, 480
 130, 511, 464, 507, 508
 131, 511, 507, 464, 465
 132, 498, 505, 502, 504
 133, 497, 498, 529, 297
 134, 498, 488, 527, 526
 135, 511, 514, 513, 255
 136, 486, 488, 526, 480
 137, 498, 495, 526, 522
 138, 502, 255, 511, 508
 139, 502, 508, 501, 255
 140, 498, 529, 297, 298
 141, 493, 489, 490, 491
 142, 493, 480, 518, 516
 143, 497, 488, 297, 483
 144, 477, 505, 502, 290
 145, 491, 486, 493, 514
 146, 497, 529, 498, 527
 147, 486, 491, 502, 514
 148, 488, 526, 480, 527
 149, 490, 489, 219, 212
 150, 492, 533,  40, 455
 151, 492, 469,  40, 470
 152, 522, 219, 521, 218
 153, 505, 502, 507, 508
 154, 498, 297, 501, 290
 155, 534, 415, 372, 189
 156, 515, 489, 511, 507
 157, 522, 494, 498, 495
 158, 511, 502, 491, 514
 159, 511, 508, 460, 464
 160, 513,  83,  95, 514
 161,  83, 512, 514, 513
 162, 514, 244,  83, 484
 163, 511, 255, 513, 460
 164, 494,  55,  56, 218
 165,  82, 459, 454, 515
 166, 512, 459, 511, 513
 167, 512, 513,  83,  11
 168, 512,  82, 459,  11
 169, 535, 325, 299, 333
 170, 231, 233, 389,  64
 171,  64, 536, 396, 229
 172, 355, 276, 363, 537
 173, 538, 539, 247, 246
 174, 538, 540, 223, 246
 175, 538,  50,  92, 222
 176, 538,  92,  50,  49
 177, 538, 540, 246,  93
 178, 538,  92,  93, 247
 179, 520, 401,  52,  88
 180, 520,  87, 401,  88
 181, 516, 253,  86, 403
 182, 406, 369, 191,  62
 183, 517, 403, 421, 419
 184, 541, 224, 223, 216
 185, 520, 493, 516, 253
 186, 225, 385,  46, 377
 187, 520, 401, 419,  53
 188, 534, 380, 379, 371
 189, 252, 520, 253, 493
 190, 531, 475, 542, 313
 191, 531, 542, 312, 313
 192, 400, 531, 304, 204
 193, 531, 542, 400, 312
 194, 543,  47, 224, 217
 195, 511, 507, 465, 515
 196, 477, 502, 508, 501
 197, 457, 492, 467, 469
 198, 507, 470, 467, 492
 199, 505, 464, 507, 466
 200, 471, 470, 467, 507
 201, 507, 504, 466, 471
 202, 513,  83,  11,  95
 203, 544, 351, 343, 352
 204,  97, 460,  13, 255
 205, 512, 514, 244,  83
 206, 511, 512, 515, 459
 207, 378, 227, 370, 369
 208, 513,  95,  11,  13
 209, 359, 130, 366, 180
 210, 545,  21, 443, 461
 211, 545,  21, 130, 443
 212, 130, 545, 359, 282
 213, 546,  43,  75,  44
 214, 546, 547,  44,  74
 215, 546, 215,  75,  43
 216, 546, 236, 547,  74
 217, 546, 215, 539, 237
 218, 546, 539, 236, 237
 219, 548, 549, 136, 286
 220, 548, 287, 137, 262
 221, 548, 104, 137, 136
 222, 548, 550, 287, 262
 223, 548, 549, 286, 263
 224, 548, 550, 263, 286
 225, 528, 436, 521, 431
 226, 159, 158, 310,  29
 227, 521, 431, 436,  54
 228, 521, 429,  53, 219
 229, 521, 429, 522, 431
 230, 521, 429,  54,  53
 231, 534, 551, 230,  60
 232, 534, 415,   6,  66
 233, 534,  66, 230, 372
 234, 552, 225,  57, 393
 235, 552,  57, 451, 393
 236, 552,   2, 462, 451
 237, 552, 543, 384, 553
 238, 489, 242, 252, 219
 239, 552, 225, 385,  46
 240, 205, 475, 306, 206
 241, 552, 543,  46, 385
 242, 554, 406,   3,  62
 243, 554, 369,  62, 227
 244, 305, 475, 306, 205
 245, 543, 224,  47, 554
 246, 554,   3, 406, 432
 247,  46,  47, 377, 543
 248, 554, 368, 406, 369
 249, 555, 344, 544, 343
 250, 555, 133, 414, 335
 251, 555,  22, 132, 433
 252, 556, 280, 557, 348
 253, 340, 339, 348, 280
 254, 280, 339, 347, 278
 255, 484, 524,  96, 424
 256, 496, 470, 472, 471
 257, 484, 514, 265,  96
 258, 524, 485, 516,  85
 259, 524,  14,  84,  96
 260, 423,  85, 485, 524
 261, 524, 424,  12,  14
 262, 524,  12, 423,  85
 263, 509, 307, 476, 207
 264, 500, 487, 509, 324
 265, 500, 509, 487, 503
 266, 509, 207, 476, 474
 267, 510, 207, 509, 503
 268, 509, 207, 474, 208
 269, 539, 541, 236, 246
 270, 538, 539, 246, 223
 271, 539, 247, 215, 222
 272, 538, 247, 539, 222
 273, 539, 541, 216, 236
 274, 546, 216, 539, 215
 275, 558, 106, 549, 461
 276, 549, 559, 263, 264
 277, 549, 461, 135, 285
 278, 549, 559, 285, 286
 279, 549, 559, 286, 263
 280, 560, 407, 340, 128
 281, 560, 407,  20, 134
 282, 560, 283, 134, 127
 283, 560, 349, 341, 283
 284, 561,  59, 226,  58
 285, 561, 229, 536, 551
 286, 561,  63, 442, 396
 287, 561,  58,   5,  59
 288, 561, 229,   5,  63
 289, 525, 317, 308, 309
 290, 434, 308, 410, 525
 291, 411, 434, 308, 410
 292, 500, 525, 316, 308
 293, 500, 316, 525, 317
 294, 510, 525,  26, 152
 295, 552, 392, 553, 384
 296, 552, 543, 553, 462
 297, 543, 553, 462,  69
 298, 558, 523, 544, 562
 299, 543, 217, 235, 462
 300, 543, 245, 563,  70
 301, 494, 143, 298, 142
 302, 143, 436, 494, 298
 303, 495, 496, 494, 504
 304, 492, 533, 455, 457
 305, 496, 472, 494, 291
 306, 564, 565, 149, 293
 307, 564, 559, 293, 292
 308, 564, 150, 433, 292
 309, 564, 273, 559, 274
 310, 424,  96, 118,  14
 311, 510, 500, 499, 503
 312, 510, 499, 500, 152
 313, 500, 499, 151, 152
 314, 503, 143,  55, 142
 315,  57, 197, 394,  58
 316, 561, 396, 387, 388
 317, 561, 551, 388, 387
 318, 561, 551, 226,  59
 319, 551, 561, 388, 536
 320, 551,  59, 230,  60
 321, 536, 380, 551, 230
 322, 479, 289, 259, 139
 323, 439,  99, 437, 478
 324, 478, 437, 477, 479
 325, 477, 479, 140, 290
 326, 290, 505, 468, 477
 327, 437, 478,  99, 479
 328, 477, 478, 257, 508
 329, 541, 223, 540, 246
 330, 541, 540, 223, 224
 331, 541, 540, 245, 246
 332, 541, 540, 224, 245
 333, 555, 544, 344, 566
 334, 555, 343, 335, 344
 335, 562, 558, 566, 544
 336, 525,  26, 152, 158
 337, 336, 566, 408, 555
 338, 523, 545, 131, 544
 339, 523, 352, 544, 562
 340, 561,   5,  58, 442
 341, 558, 523, 131, 544
 342, 314, 473, 322, 476
 343, 458, 508, 453, 477
 344, 258, 479, 100,  99
 345, 310, 157, 158, 301
 346, 257, 479,  99, 478
 347, 255, 508, 256,  97
 348, 256, 508, 257,  98
 349, 508, 478,  98, 453
 350, 478, 477, 439, 453
 351, 478, 439,  99,  98
 352, 526, 527, 518, 480
 353, 529, 145, 297, 298
 354, 425, 421, 518, 516
 355, 527, 518, 427, 522
 356, 209, 208, 567, 474
 357, 518, 425, 516, 480
 358, 296, 530, 268, 146
 359, 530, 402, 116, 115
 360, 501, 256, 266, 255
 361, 474, 210, 473, 330
 362, 226, 225, 394,  57
 363, 530, 146, 296, 297
 364, 114, 115, 146, 268
 365, 402, 530, 404, 420
 366, 530, 297, 483, 420
 367, 542, 202, 473, 475
 368, 534, 230, 551, 380
 369, 329, 320, 399, 542
 370, 542, 202, 475, 203
 371, 531, 542, 203, 400
 372, 399, 202, 473, 542
 373, 542, 399, 203, 400
 374, 542, 312, 321, 320
 375, 487, 500, 151, 535
 376, 510, 434, 525, 308
 377, 510, 500, 525, 152
 378, 487, 509, 208, 503
 379, 510, 503,  55, 207
 380, 500, 525, 152, 317
 381, 537, 557, 357, 356
 382, 557, 357, 356, 348
 383, 357, 537, 281, 557
 384, 557, 280, 279, 127
 385, 557, 283, 126, 281
 386, 560, 348, 280, 340
 387, 560, 283, 557, 349
 388, 560, 557, 283, 127
 389, 541, 547, 217, 216
 390, 538, 223, 540,  49
 391, 538, 540,  93,  49
 392, 540, 432, 224, 245
 393, 540,  93,  48,  94
 394, 540, 432,  94,  48
 395, 539, 541, 246, 223
 396, 547, 462,  45,  73
 397, 547,  74,  45,  44
 398, 539, 216, 541, 223
 399, 474, 330, 209, 210
 400, 541, 235, 547, 236
 401, 547, 462, 235, 217
 402, 547, 217, 216,  44
 403, 541, 236, 245, 235
 404, 140, 468, 290, 141
 405, 468, 290, 141, 506
 406, 506, 290, 505, 468
 407, 506, 505, 466, 468
 408, 551, 228, 226,  60
 409, 151, 463, 499, 487
 410, 380, 230, 536, 381
 411, 143, 499, 503, 510
 412, 322, 474, 476, 473
 413, 503,  23,   1, 463
 414, 503,   1,  23, 142
 415, 509, 208, 503, 207
 416, 503, 463,   1,  38
 417, 487,  38, 503, 208
 418, 512, 513,  11, 459
 419,  81, 533, 242, 515
 420, 515, 533, 242, 489
 421, 492, 533, 457, 515
 422, 540, 246,  94, 245
 423, 533,  40, 455, 438
 424, 492,  40, 533, 212
 425, 533, 515, 440, 457
 426, 533,  80, 440,  81
 427, 528, 435, 144, 436
 428, 130, 129, 366,  32
 429, 498, 522, 526, 527
 430, 497, 527, 428, 435
 431, 529, 497, 297, 430
 432, 498, 502, 290, 501
 433, 529, 430, 145, 144
 434, 297, 430, 145, 529
 435, 568, 328, 319, 320
 436, 568, 446,  27, 154
 437, 568, 446, 201,  27
 438, 568, 201, 446, 328
 439, 558, 564, 292, 559
 440, 549, 136, 285, 135
 441, 564, 109, 150, 110
 442, 558, 549, 559, 285
 443, 548, 136, 549, 105
 444, 558, 274, 559, 264
 445, 559, 550, 273, 293
 446, 559, 263, 550, 286
 447, 564, 274, 109, 273
 448, 487, 445, 463,  38
 449, 487, 567, 445,  38
 450, 447, 487, 567, 445
 451, 333, 447, 151, 535
 452, 487, 323, 324, 332
 453, 487, 474, 331, 567
 454, 503,  55, 208,  56
 455, 490, 526, 495, 522
 456, 528, 527, 435, 522
 457, 527, 522, 431, 435
 458, 427, 522, 431, 527
 459, 347, 280, 556, 348
 460, 497, 435, 529, 527
 461, 518, 527, 427, 480
 462, 497, 483, 422, 480
 463, 484, 254, 493, 489
 464, 474, 509, 487, 323
 465, 493, 252, 489, 253
 466, 516,  86, 417, 403
 467, 517, 493, 520, 219
 468, 518, 480, 427, 425
 469, 558, 461, 549, 285
 470, 523, 545, 360, 443
 471, 523, 264, 106, 107
 472, 523, 107, 353, 562
 473, 465, 515, 459, 511
 474, 492, 491, 495, 490
 475, 515,  81, 440, 454
 476, 492, 491, 489, 507
 477, 515, 454,  82,  81
 478, 511, 244, 489, 515
 479, 459, 512, 515,  82
 480, 482, 483, 422, 404
 481, 530, 482, 404, 483
 482, 266, 483, 530, 501
 483, 530, 404, 420, 483
 484, 266, 501, 482, 483
 485, 481,  96, 265, 118
 486, 482, 265, 117, 118
 487, 511, 502, 508, 507
 488, 453, 508,  97,  98
 489, 505, 466, 507, 504
 490, 505, 507, 464, 508
 491, 344, 562, 353, 345
 492, 478,  98, 453, 439
 493, 502, 514, 255, 501
 494, 351, 352, 544, 545
 495, 544, 566, 562, 344
 496, 559, 263, 274, 273
 497, 558, 566, 433, 108
 498, 558, 559, 549, 264
 499, 558, 564, 274, 433
 500,  76,  42, 215, 214
 501, 558, 564, 559, 274
 502,  96, 514,  83, 484
 503, 526, 522, 518, 527
 504, 486, 493, 480, 526
 505,  15, 361, 523, 107
 506, 482, 501, 265, 486
 507, 486, 502, 491, 526
 508, 486, 484, 514, 265
 509, 437, 477, 140, 456
 510, 533, 489, 212, 242
 511, 522, 493, 518, 517
 512, 493, 219, 489, 252
 513, 489, 254, 493, 253
 514, 227,  61, 228, 370
 515, 565, 550, 293, 273
 516, 565, 550, 294, 293
 517, 565, 148, 294, 272
 518, 565, 148, 111, 149
 519, 565, 110, 272, 273
 520, 565, 110, 111, 272
 521, 550, 294, 287, 262
 522, 565, 294, 550, 272
 523, 550, 293, 286, 287
 524, 565, 550, 273, 272
 525, 498, 298, 528, 529
 526, 548, 263, 550, 262
 527, 559, 273, 550, 263
 528, 514, 255, 501, 265
 529, 484, 493, 254, 516
 530, 372, 405, 373, 188
 531, 297, 501, 267, 530
 532, 486, 493, 526, 491
 533, 555, 566, 344, 336
 534, 558, 274, 108, 433
 535, 558, 461, 523, 106
 536, 566, 344, 336, 345
 537, 566, 277, 124, 108
 538, 505, 464, 466, 458
 539, 488, 483, 501, 297
 540, 530, 268, 267, 297
 541, 490, 522, 494, 218
 542, 496, 504, 506, 291
 543, 498, 491, 495, 504
 544, 506, 468, 471, 141
 545, 472, 506, 496, 471
 546, 505, 466, 468, 458
 547, 521, 431,  54, 429
 548, 486, 502, 501, 514
 549, 527, 480, 428, 427
 550, 528, 431, 521, 522
 551, 528, 218, 521, 436
 552, 528, 435, 436, 431
 553, 553,  68,  69, 232
 554, 543, 563, 245, 432
 555, 553, 441,  68, 391
 556, 553, 391, 232, 383
 557, 543, 235,  69, 462
 558, 526, 493, 518, 522
 559,  34,  68, 398,  67
 560, 552, 441, 451, 462
 561, 553, 462,   9, 441
 562, 528, 522, 494, 498
 563, 501, 483, 530, 297
 564, 297, 145, 420, 530
 565, 530, 420, 402, 145
 566, 370, 228, 371,  61
 567, 498, 494, 528, 298
 568, 507, 467, 464, 465
 569, 543, 563, 375,  70
 570, 552, 543, 385, 384
 571, 563, 368, 413, 406
 572, 563,  10, 432, 413
 573, 543, 553, 383, 384
 574, 563, 367, 413, 368
 575,  10, 563, 367, 413
 576, 543, 224, 432, 245
 577, 224, 432, 554, 543
 578, 554, 563, 432, 406
 579, 545, 352, 544, 523
 580, 350, 351, 343, 284
 581, 523, 545, 461, 131
 582, 534, 228,  60,   6
 583, 366, 130,  32, 180
 584, 358, 359, 282, 366
 585, 452,  15, 361, 523
 586, 542, 313, 475, 473
 587, 522, 518, 427, 429
 588, 311, 300, 519, 302
 589, 542, 400, 312, 399
 590, 554,  47, 227,  62
 591, 537, 557, 279, 126
 592, 545, 130, 180, 443
 593, 537, 444, 363, 364
 594, 281, 282, 358, 284
 595, 129, 366, 281, 282
 596, 544, 343, 344, 352
 597, 108, 562, 558, 566
 598, 560, 280, 557, 127
 599, 547, 235, 462,  73
 600, 557, 349, 281, 357
 601, 282, 366, 281, 358
 602, 132, 282, 284, 351
 603, 365, 450, 281, 537
 604, 443, 360, 452, 181
 605, 557, 283, 127, 126
 606, 337, 346, 277, 345
 607, 566, 337, 124, 277
 608, 554, 377, 369, 227
 609, 301, 151, 317, 299
 610, 558, 549, 106, 264
 611, 534, 380, 372, 230
 612, 554, 563, 368, 376
 613, 425, 481, 426, 424
 614, 228, 378, 227, 370
 615, 543, 377, 385, 376
 616, 534,  60, 230,  66
 617, 430, 497, 297, 420
 618, 114, 146, 269, 268
 619, 282, 130, 366, 359
 620, 542, 313, 321, 312
 621,  46, 227, 225, 377
 622, 501, 266, 256, 267
 623, 297, 290, 268, 267
 624, 568, 327, 328, 446
 625, 546,  44, 547, 216
 626, 300, 318, 311, 319
 627, 473, 475, 314, 313
 628, 537, 444, 364, 125
 629, 303, 400, 312, 304
 630, 444, 279, 121,  17
 631, 554, 563, 543, 432
 632, 563, 245, 432,  10
 633, 563, 245,  10,  70
 634, 523, 545, 352, 360
 635, 523, 360, 452, 443
 636, 181, 359, 443, 360
 637, 545, 443, 180, 359
 638, 276, 556, 537, 355
 639, 545, 351, 360, 359
 640, 552,  57, 225,   2
 641, 544, 545, 131, 351
 642, 394, 225, 385, 393
 643, 561, 395, 442,  58
 644, 551, 379, 388, 387
 645, 383, 234, 382, 390
 646, 229,  64, 449, 396
 647, 389,  65, 381, 536
 648, 374, 382, 233, 373
 649, 275, 354, 362, 353
 650, 353, 345, 275, 354
 651, 545, 360, 351, 352
 652, 545, 282, 131, 351
 653, 556, 279, 557, 280
 654, 537, 556, 557, 356
 655, 545, 359, 282, 351
 656, 186, 365, 364, 450
 657, 545, 360, 443, 359
 658, 556, 356, 355, 347
 659, 541, 224, 216, 217
 660, 552, 385, 393, 384
 661, 351, 359, 282, 358
 662,  92, 248, 247, 222
 663, 282, 284, 351, 358
 664, 300, 153, 334, 154
 665, 525, 309, 301, 317
 666, 131, 282, 132, 351
 667, 567, 208,  38, 487
 668, 551, 226,  59,  60
 669, 568, 300, 154, 155
 670, 487, 332, 567, 331
 671, 208, 474, 509, 487
 672, 503, 208,  38,  56
 673, 299, 318, 326, 317
 674, 334, 299, 333, 153
 675, 509, 324, 315, 316
 676, 206, 475, 306, 476
 677, 301, 152, 317, 151
 678, 323, 474, 476, 322
 679, 567, 474, 331, 209
 680, 315, 476, 306, 314
 681, 306, 476, 307, 206
 682, 538, 222, 539, 223
 683, 523, 352, 562, 353
 684, 566,  16, 433, 108
 685, 365, 281, 366, 357
 686, 450, 281, 537, 126
 687, 554, 543, 376, 377
 688, 378, 226, 228, 225
 689, 310, 301, 318, 302
 690, 309, 310, 301, 318
 691, 554, 377, 376, 368
 692, 554, 368, 369, 377
 693, 543, 541, 235, 217
 694, 561, 387, 396, 395
 695, 339, 569, 347, 278
 696, 339, 569, 123, 338
 697, 365, 357, 537, 281
 698, 507, 515, 457, 465
 699, 568, 519, 155, 399
 700, 542, 473, 329, 321
 701, 306, 206, 307, 162
 702, 475, 314, 305, 306
 703, 497, 422, 420, 430
 704, 107, 558, 562, 523
 705, 564, 565, 293, 273
 706, 564, 273, 109, 110
 707,  79, 241,  80, 438
 708, 511, 460, 508, 255
 709, 477, 501, 257, 290
 710, 477, 458, 456, 439
 711, 139, 100, 259, 479
 712, 453, 477, 439, 458
 713, 508, 257,  98, 478
 714, 291, 498, 504, 290
 715, 506, 471, 472, 141
 716, 492,  39, 212, 496
 717, 540, 224,  48, 223
 718, 493, 490, 522, 526
 719, 496, 211, 472,  39
 720, 506, 141, 472, 291
 721, 498, 529, 528, 527
 722, 472, 142,  23,   1
 723, 492, 469, 455,  40
 724, 494, 472, 211,  56
 725, 487, 332, 535, 447
 726, 447, 172, 333, 153
 727, 463, 499, 487, 503
 728, 474, 331, 209, 330
 729, 487, 331, 474, 323
 730, 209, 331, 567, 170
 731, 448, 201, 202, 399
 732, 448, 167, 201, 328
 733, 446, 201, 167, 328
 734, 568, 399,  27, 201
 735, 450, 129, 365, 281
 736, 185, 363, 184, 444
 737, 561,  63,   5, 442
 738, 454, 465, 515, 459
 739, 511, 459, 465, 460
 740, 508, 453, 460, 464
 741, 199, 396, 395, 442
 742, 508, 460,  97, 255
 743, 533, 438, 241,  40
 744, 515, 440, 457, 454
 745, 533, 440, 515,  81
 746,  40,  39, 212, 492
 747, 460,  13, 255, 513
 748, 533,  81, 242,  80
 749, 449,  64,  63,   7
 750, 515, 489, 243, 244
 751, 248,  50, 221, 222
 752, 494,  56, 142, 472
 753, 507, 467, 466, 464
 754, 290, 296, 258, 289
 755, 479, 437, 477, 140
 756, 479, 140, 289, 139
 757, 101, 139, 100, 259
 758,  98, 508,  97, 256
 759, 275, 107, 361,  15
 760, 209, 208,  38, 567
 761, 499, 152, 143, 142
 762, 135, 461, 131, 285
 763,  63, 396, 229, 449
 764, 231, 397,  67, 449
 765, 549, 105, 264, 263
 766, 396, 397, 449, 200
 767, 442, 199, 396,  63
 768, 544, 562, 352, 344
 769, 552, 392, 451, 441
 770, 552, 462,   2,  46
 771, 116, 482, 117, 404
 772, 196, 393, 451,  57
 773, 451, 441, 392, 195
 774, 543, 462,  46, 217
 775, 547,  45, 462, 217
 776, 543, 563, 376, 375
 777, 441, 194,  68, 391
 778, 553, 441, 391, 392
 779, 552, 392, 393, 451
 780,  37, 206, 307, 476
 781, 500, 509, 316, 324
 782, 308, 307, 509, 411
 783, 434, 509, 510, 207
 784, 510, 499, 152, 143
 785, 411, 509, 434, 207
 786, 473, 330, 210, 329
 787, 487, 323, 332, 331
 788, 529, 435, 430, 144
 789, 528, 522, 521, 218
 790, 257, 501, 267, 290
 791, 497, 428, 422, 430
 792, 497, 430, 435, 428
 793, 492, 467, 469, 470
 794, 497, 430, 529, 435
 795, 508, 257, 501, 256
 796, 424, 485, 425, 481
 797, 516, 524, 254, 484
 798, 429, 522, 431, 427
 799, 418, 426, 422, 482
 800, 483, 404, 420, 422
 801, 543, 245, 541, 224
 802, 514, 502, 255, 511
 803, 403, 520, 517, 516
 804, 528, 436, 144, 298
 805, 507, 467, 471, 466
 806, 218, 490, 522, 219
 807, 521,  54, 436, 218
 808, 411, 206, 307,  37
 809, 434, 207,  37, 411
 810, 546,  74,  44,  75
 811, 494, 218, 436,  55
 812, 436,  24, 143,  55
 813, 530, 115, 267, 268
 814, 530, 116, 402, 404
 815, 530, 297, 145, 146
 816, 333, 324, 332, 535
 817, 403, 253,  86,  87
 818, 516, 425, 421, 417
 819, 251, 219,  52, 520
 820, 517, 421, 429, 419
 821, 429, 517, 520, 219
 822, 520, 419, 401, 403
 823, 517, 520, 493, 516
 824, 219, 429,  53, 520
 825, 219, 490, 522, 517
 826, 497, 498, 488, 527
 827, 507, 457, 492, 467
 828, 498, 526, 495, 491
 829, 480, 422, 428, 426
 830, 501, 266, 265, 255
 831, 419, 520, 517, 403
 832, 426, 481, 482, 418
 833, 517, 518, 522, 429
 834, 527, 431, 427, 428
 835, 482, 404, 422, 418
 836, 528, 436, 494, 218
 837, 412, 303, 302, 157
 838, 531, 400,  36, 204
 839, 532, 204, 164, 304
 840, 476, 475, 314, 473
 841, 500, 535, 487, 324
 842, 480, 426, 428, 427
 843, 163, 532, 305, 205
 844, 509, 315, 476, 307
 845, 476, 207, 307,  37
 846, 161, 206, 307, 411
 847, 473, 210,  35, 448
 848,  41, 213,  79, 438
 849, 509, 307, 316, 315
 850, 525, 410, 434,  26
 851, 308, 411, 509, 434
 852, 411, 308, 307, 161
 853, 410, 158, 309, 159
 854, 510,  26, 143, 152
 855, 510, 143,  26,  24
 856, 324, 332, 535, 487
 857, 558, 555, 132, 433
 858, 555, 344, 335, 336
 859, 179, 335, 414, 133
 860, 433, 150,  22, 292
 861, 555, 566, 408, 433
 862, 558, 433, 132, 292
 863, 123, 278, 339, 416
 864, 416, 340, 174, 128
 865, 560, 128, 340, 280
 866, 407, 174, 341, 340
 867, 485, 425, 417, 423
 868, 481, 485, 480, 486
 869, 524, 424, 423,  12
 870, 484,  84, 524, 254
 871, 493, 514, 489, 491
 872, 485, 516, 417, 425
 873,  96, 424, 481, 484
 874, 482, 426, 422, 480
 875, 530, 266, 482, 483
 876, 420, 430, 145, 297
 877, 517, 490, 522, 493
 878, 530, 266, 267, 116
 879, 482, 117, 404, 418
 880, 516, 417,  86,  85
 881, 253, 520, 403, 516
 882, 480, 427, 425, 426
 883,  85, 524, 254, 516
 884, 529, 144, 145, 298
 885, 220, 251, 219,  52
 886,  87, 520, 403, 253
 887, 536, 230, 551, 229
 888,  70,  10, 563, 367
 889, 563, 432, 406, 413
 890, 383,  70,  69, 543
 891, 413, 192, 406, 368
 892,  70, 375, 367, 563
 893, 540, 224, 432,  48
 894, 554,  62, 369, 406
 895, 546, 236, 539, 216
 896, 534,  66, 372, 415
 897, 415, 372, 189, 188
 898, 405, 372, 230,  66
 899, 405, 373, 188, 187
 900,  36, 531, 532, 205
 901, 165, 304, 164, 412
 902, 412, 304, 400, 303
 903, 302, 311, 156, 519
 904, 531, 400, 203,  36
 905, 156, 311, 400, 519
 906, 531, 475, 313, 305
 907, 531, 203, 542, 475
 908, 473, 210, 448, 329
 909, 201, 328, 399, 448
 910, 164, 409, 532, 163
 911, 412, 303, 165, 304
 912, 531, 203, 475, 205
 913, 542, 399, 329, 473
 914, 448, 202, 473, 399
 915, 166, 446, 167, 327
 916, 329, 399, 328, 448
 917, 449, 199, 396, 200
 918, 200, 397, 449,  67
 919, 200,  34, 397,  67
 920, 561, 226, 551, 387
 921, 393,  57, 197, 394
 922, 392, 393, 451, 196
 923, 414, 178, 336, 179
 924, 392, 195, 196, 451
 925,  34, 194, 398,  68
 926, 393, 196, 197,  57
 927, 536, 389, 397, 388
 928, 396,  64, 449, 397
 929,  64, 449, 397, 231
 930, 449, 396, 199,  63
 931,  34, 398, 397,  67
 932, 561, 387, 395, 226
 933, 335, 336, 179, 414
 934, 389, 397, 398, 231
 935, 561, 442, 395, 396
 936, 442, 199, 198, 395
 937, 485, 425, 423, 424
 938, 551, 230,  59, 229
 939, 394, 225, 393,  57
 940, 561, 395,  58, 226
 941, 226, 395,  58, 394
 942, 394,  58, 226,  57
 943, 552, 393, 385, 225
 944, 552, 451,  57,   2
 945, 394, 386, 385, 225
 946, 543, 385, 384, 376
 947, 194, 398,  68, 391
 948, 552, 441, 553, 392
 949, 553,  68, 441,   9
 950, 441, 195, 194, 391
 951, 441, 392, 195, 391
 952, 398,  68, 391, 232
 953, 231,  64, 389, 397
 954, 391, 232, 390, 398
 955, 231, 390, 398, 389
 956, 232, 231, 390, 398
 957, 553, 384, 392, 383
 958, 449, 231,   7,  67
 959, 449,   7, 231,  64
 960, 551, 380, 388, 379
 961, 233,  64,  65, 389
 962, 231, 232, 390, 234
 963, 534, 379, 551, 228
 964, 228, 226, 387, 551
 965, 561, 229, 551,  59
 966, 552, 462, 553, 441
 967, 386, 226, 225, 394
 968, 226, 225, 378, 386
 969, 377, 227,  47,  46
 970, 553, 392, 391, 383
 971, 225, 377, 227, 378
 972, 375, 383, 543,  70
 973, 543, 375, 384, 383
 974, 232,  70,  69, 383
 975, 395, 226, 387, 386
 976, 561,  59,   5, 229
 977, 396, 229, 536, 561
 978, 383, 232, 390, 391
 979, 234, 383, 232, 390
 980, 234,  70, 383, 375
 981, 338, 124, 277, 123
 982, 231, 397, 398,  67
 983, 462, 235,  69,  73
 984,  70, 234, 383, 232
 985, 381, 372,  65, 373
 986, 395, 386, 394, 226
 987, 397,  64, 389, 536
 988, 552, 392, 384, 393
 989, 536,  64,  65, 229
 990, 537, 355, 556, 356
 991, 536, 396, 388, 397
 992, 397, 536, 396,  64
 993, 198, 395,  58, 442
 994, 534, 228,   6,  61
 995, 382, 234, 233, 390
 996, 228, 379, 378, 370
 997, 551, 228, 379, 387
 998, 378, 226, 387, 228
 999, 227, 378, 228, 225
1000, 225, 386, 385, 377
1001, 378, 377, 227, 369
1002, 387, 228, 379, 378
1003, 556, 348, 557, 356
1004,  69, 383, 553, 232
1005, 537, 125, 279, 444
1006, 553,  68, 232, 391
1007, 543, 376, 384, 375
1008, 398, 232,  67,  68
1009, 537, 364, 356, 365
1010, 492, 504, 507, 470
1011, 382, 234, 375, 374
1012, 537, 365, 356, 357
1013, 563, 376, 367, 368
1014, 234, 374, 382, 233
1015, 405, 187,  72, 373
1016, 372,  65, 373, 405
1017, 373, 187,  72, 374
1018, 534, 380, 551, 379
1019, 233,  65,  72, 373
1020, 506, 291, 290, 141
1021, 405, 230, 372,  65
1022, 534,  61,   6, 415
1023, 534,  60,  66,   6
1024, 405, 188, 372,  66
1025, 534, 371, 379, 228
1026, 415, 188,  66, 372
1027, 405,  72,   8,  65
1028, 373, 233, 374,  72
1029,  65,  72, 373, 405
1030, 566, 277, 108, 562
1031, 536, 561, 388, 396
1032, 534, 228,  61, 371
1033, 536, 388, 551, 380
1034, 370, 227,  62, 369
1035, 370, 190,  62,  61
1036, 370, 190,  61, 371
1037, 233, 389,  65, 381
1038, 225, 378, 386, 377
1039,  62, 190, 370, 191
1040, 554, 368, 563, 406
1041, 554,  47,  62,   3
1042, 370,  62, 227,  61
1043, 234,  70, 375, 367
1044, 554, 227,  47, 377
1045, 191, 192, 369, 406
1046, 543, 224, 541, 217
1047, 561, 396, 229,  63
1048, 563, 376, 375, 367
1049, 413, 368, 193, 192
1050, 413, 367,  71, 193
1051, 375, 367, 374, 234
1052, 374,  71, 367,  33
1053, 374,  33,  72,  71
1054, 187,  33,  72, 374
1055, 534, 372, 380, 371
1056, 233, 389, 390, 231
1057, 387, 378, 386, 226
1058, 367,  71, 193,  33
1059, 234,  10,  70, 367
1060,  62, 369, 191, 370
1061, 374,  71, 233, 234
1062, 367,  71, 234,  10
1063, 374, 233,  71,  72
1064, 534,  61, 189, 371
1065, 125, 444, 364, 185
1066, 444, 363, 184, 120
1067, 184, 362, 183, 120
1068, 394, 197, 198,  58
1069, 452, 182, 361, 119
1070, 452, 182, 181, 360
1071, 545, 461, 131,  21
1072, 180, 359, 443, 181
1073, 452, 361, 182, 360
1074, 180, 545, 359, 130
1075, 183, 120, 362, 119
1076, 545, 282, 130, 131
1077, 450, 281,  19, 129
1078, 450, 364, 185, 125
1079, 537, 364, 365, 450
1080, 365, 129, 366, 281
1081, 395, 394, 198,  58
1082, 537, 556, 121, 279
1083, 126, 450,  19, 125
1084, 120, 363, 276, 444
1085, 185, 444, 364, 363
1086, 406, 192, 369, 368
1087, 355, 276, 354, 363
1088, 362, 361, 275, 353
1089, 362, 363, 276, 120
1090, 523, 360, 361, 452
1091, 184, 120, 363, 362
1092,  15, 361, 275, 119
1093, 238, 215, 214,  76
1094, 361, 182, 183, 119
1095, 523, 106,  15, 107
1096, 362, 361, 183, 119
1097, 205,  36, 409, 532
1098, 532,  36, 409, 204
1099, 556, 347, 348, 356
1100, 557, 349, 357, 348
1101, 349, 358, 281, 357
1102, 305, 532, 164, 304
1103, 119, 361, 275, 362
1104, 163, 532, 164, 305
1105, 347, 339, 338, 569
1106, 353, 345, 562, 275
1107, 362, 276, 275, 119
1108, 531, 305, 205, 475
1109, 129, 366,  32, 365
1110, 545, 131, 130,  21
1111, 284, 358, 281, 283
1112, 535, 324, 325, 333
1113, 523, 545, 443, 461
1114, 354, 276, 355, 346
1115, 560, 340, 349, 348
1116, 560, 407, 128,  20
1117, 366, 281, 358, 357
1118, 537, 556, 279, 557
1119, 556, 122, 121, 280
1120, 399, 519, 312, 320
1121, 278, 280, 556, 347
1122, 303, 156, 311, 400
1123, 399, 400, 312, 519
1124, 346, 275, 354, 276
1125, 277, 569, 278, 346
1126, 568, 519, 300, 155
1127, 123, 569, 278, 277
1128, 566, 337, 345, 336
1129, 566, 345, 562, 344
1130, 319, 320, 311, 519
1131, 555, 284, 133, 335
1132, 534, 415, 189,  61
1133, 283, 350, 358, 349
1134, 560, 340, 341, 349
1135, 544, 284, 132, 555
1136, 350, 284, 343, 342
1137, 350, 342, 283, 284
1138, 558, 555, 544, 132
1139, 484,  96,  84,  83
1140, 259, 269, 270, 296
1141, 407, 173, 134, 341
1142, 560, 340, 407, 341
1143, 341, 173, 134, 342
1144, 407, 340, 128, 174
1145, 407, 341, 174, 173
1146, 569, 278, 346, 347
1147, 280, 339, 278, 416
1148, 560, 557, 280, 348
1149, 416, 340, 280, 339
1150, 259, 289, 296, 270
1151, 341, 283, 342, 134
1152, 416, 339, 123, 175
1153, 123, 176, 175, 339
1154, 173, 134, 342,  31
1155, 382, 381, 233, 373
1156, 416, 128,  18, 122
1157, 416, 280, 122, 278
1158, 176, 338, 339, 123
1159, 283, 358, 281, 349
1160, 338, 123, 176, 124
1161, 566, 124,  16, 108
1162, 204, 409, 532, 164
1163, 251, 241, 220, 219
1164, 124, 176, 338, 177
1165, 177, 337, 408, 178
1166, 566, 408,  16, 124
1167, 337, 277, 338, 124
1168, 555, 343, 284, 335
1169, 414, 178, 408, 336
1170, 178, 337, 408, 336
1171, 537, 364, 450, 125
1172, 555, 414, 133,  22
1173, 342, 133,  31, 134
1174, 560, 134,  20, 127
1175, 342, 335, 133, 284
1176, 531, 304, 312, 400
1177, 335, 179,  31, 133
1178, 350, 358, 351, 284
1179, 169, 330, 329, 210
1180, 284, 350, 358, 283
1181, 533, 242, 241,  80
1182, 343, 335, 342, 284
1183, 175, 340, 174, 416
1184, 555,  22, 284, 132
1185, 416, 339, 175, 340
1186, 531, 305, 304, 532
1187, 280, 416, 122, 128
1188, 342, 133, 283, 284
1189, 447, 172, 171, 332
1190, 170, 567, 445, 171
1191, 447, 333, 172, 332
1192, 209, 169, 330, 170
1193, 170, 171, 331, 567
1194, 332, 331, 171, 567
1195, 209, 170, 330, 331
1196, 473, 399, 329, 448
1197, 209, 330, 169, 210
1198, 446, 167, 327, 328
1199, 531, 304, 204, 532
1200, 531, 205,  36, 203
1201,  30, 166, 334, 154
1202,  65, 372, 381, 230
1203, 333, 334, 153,  30
1204, 239, 214, 221, 213
1205, 405, 230,  65,   8
1206, 535, 500, 151, 299
1207, 447, 153, 333,  25
1208, 536, 229,  65, 230
1209, 333, 325, 299, 334
1210, 375, 234, 382, 383
1211, 275, 276, 362, 354
1212, 322, 474, 330, 331
1213, 205, 306, 163, 162
1214, 534, 371, 189, 372
1215, 448, 167, 328, 168
1216, 461, 523, 106,  15
1217, 473, 329, 321, 330
1218, 568,  27, 399, 155
1219, 568, 399, 320, 519
1220, 327, 154, 166, 446
1221, 328, 329, 320, 399
1222, 328, 168, 329, 448
1223, 170, 209, 445, 567
1224, 542, 312, 320, 399
1225, 568, 327, 300, 319
1226, 334, 326, 300, 327
1227, 523, 360, 352, 361
1228, 276, 362, 354, 363
1229, 535, 151, 333, 299
1230, 500, 325, 535, 324
1231, 334, 325, 299, 326
1232, 153, 299, 333,  25
1233, 500, 317, 325, 316
1234,  25, 299, 333, 151
1235, 444, 363, 276, 537
1236, 307, 509, 411, 207
1237, 535, 447, 151, 487
1238, 542, 320, 321, 329
1239, 474, 322, 323, 331
1240, 509, 323, 315, 324
1241, 107, 562, 277, 275
1242, 476, 322, 314, 323
1243, 473, 321, 313, 322
1244, 321, 330, 322, 473
1245, 566, 277, 345, 337
1246, 346, 276, 355, 278
1247, 555, 558, 566, 433
1248, 351, 284, 132, 544
1249, 326, 325, 299, 317
1250, 318, 300, 311, 302
1251, 151,  23, 463,  25
1252, 300, 156, 155, 519
1253, 311, 519, 300, 319
1254, 568, 328, 320, 399
1255, 519, 311, 312, 320
1256, 568, 319, 519, 320
1257, 537, 121, 444, 279
1258, 500, 325, 324, 316
1259, 525, 308, 317, 316
1260, 317, 301, 299, 318
1261, 566,  16, 408, 433
1262, 299, 500, 151, 317
1263, 241,  40, 212, 533
1264, 525, 317, 301, 152
1265, 317, 309, 301, 318
1266, 473, 322, 474, 330
1267, 533, 455, 440, 438
1268, 121, 556, 537, 276
1269,  38, 567, 445, 209
1270, 537, 364, 363, 355
1271, 558, 461, 285, 131
1272, 313, 473, 322, 314
1273, 156, 155, 519, 400
1274, 531, 313, 304, 305
1275, 484,  96, 524,  84
1276, 556, 122, 278, 276
1277, 568, 300, 327, 154
1278, 558, 131, 523, 461
1279, 555, 343, 544, 284
1280, 481, 424, 118, 418
1281, 310, 302, 318, 311
1282, 326, 300, 319, 318
1283, 327, 300, 319, 326
1284, 537, 356, 364, 355
1285,   3, 432, 554, 224
1286, 537, 125, 126, 279
1287, 537, 444, 121, 276
1288, 189, 371,  61, 190
1289, 156, 204, 400, 412
1290, 525,  26, 158, 410
1291, 142, 499, 503, 143
1292, 309, 159, 158, 310
1293, 525, 158, 301, 309
1294, 525, 410, 309, 308
1295, 410, 309, 160, 159
1296, 411, 160, 308, 161
1297, 411, 410, 308, 160
1298, 509, 307, 308, 316
1299, 410, 308, 160, 309
1300,  55,   4, 510, 207
1301, 568, 319, 328, 327
1302, 500, 152, 151, 317
1303, 317, 325, 299, 500
1304, 476, 306, 314, 475
1305, 500, 509, 308, 316
1306, 400, 155, 519, 399
1307, 492, 533, 515, 489
1308,   4, 434, 207,  37
1309, 510, 500, 509, 308
1310, 162, 206, 307, 161
1311, 509, 474, 476, 323
1312, 205, 206, 306, 162
1313, 532, 409, 205, 163
1314, 531, 304, 313, 312
1315, 204, 531, 532,  36
1316, 310, 309, 301, 158
1317, 205, 305, 163, 306
1318, 210, 169, 168, 329
1319, 448, 202, 201,  35
1320, 533, 457, 440, 455
1321, 412, 303, 156, 302
1322, 412,  28, 156, 204
1323, 314, 323, 315, 476
1324, 310, 157,  29, 158
1325, 412, 400, 304, 204
1326, 310, 157, 303,  29
1327, 567, 447, 171, 332
1328, 487, 445, 447, 463
1329, 412, 156, 303, 400
1330, 332, 487, 567, 447
1331, 542, 313, 473, 321
1332, 568, 319, 300, 519
1333, 305, 313, 314, 475
1334, 412,  28, 302, 156
1335, 303, 157, 165,  29
1336, 543, 383, 553,  69
1337, 542, 202, 203, 399
1338, 304, 204, 164, 412
1339, 525, 410, 158, 309
1340, 412, 157, 302,  28
1341, 311, 303, 310, 302
1342, 157, 302, 301, 310
1343, 412, 165, 303, 157
1344, 299, 302, 318, 301
1345, 568, 328, 399, 201
1346, 568, 155, 154,  27
1347, 310, 302, 303, 157
1348, 513,  13, 255,  95
1349, 303, 302, 311, 156
1350, 334, 154, 166, 327
1351, 503,  56,  38,   1
1352, 154, 300, 327, 334
1353, 300, 299, 334, 153
1354, 334, 299, 300, 326
1355, 487, 509, 324, 323
1356, 210, 329, 168, 448
1357, 334, 153,  30, 154
1358, 503,   1, 142,  56
1359, 172,  30, 333, 153
1360, 300, 318, 326, 299
1361, 489, 515, 243, 242
1362, 445, 447, 171, 567
1363, 212, 220, 213, 241
1364, 151, 463, 447,  25
1365, 510,  24,   4,  55
1366, 500, 325, 299, 535
1367, 510,  24,  55, 143
1368, 473, 448,  35, 202
1369, 511, 464, 460, 465
1370, 113, 296, 269, 146
1371, 417, 516, 485,  85
1372, 148, 271, 295, 294
1373, 486, 488, 482, 501
1374, 558, 564, 433, 292
1375, 503, 207, 208,  55
1376, 436, 144, 298, 143
1377, 436, 143,  24, 144
1378, 436,   4,  24,  55
1379, 494, 142, 298, 291
1380, 527, 428, 435, 431
1381, 296, 146, 113, 147
1382, 270, 289, 296, 295
1383, 530, 268, 297, 296
1384, 271, 112, 147, 270
1385, 147, 296, 295, 270
1386, 565, 294, 149, 293
1387, 289, 296, 258, 259
1388, 295, 260, 289, 288
1389, 148, 294, 272, 271
1390, 548, 287, 550, 286
1391, 559, 550, 293, 286
1392, 564, 150, 149, 110
1393, 292, 433, 132,  22
1394, 559, 292, 285, 286
1395, 151,  23, 499, 463
1396, 447, 332, 535, 333
1397, 521,  53,  54, 218
1398, 494, 143, 142,  55
1399, 494,  55, 142,  56
1400, 472,  56, 142,   1
1401, 436,  54,  55, 218
1402, 499, 152, 142, 151
1403,  56, 142, 503,  55
1404, 436,  54,   4,  55
1405, 151, 142, 499,  23
1406, 477, 479, 290, 257
1407, 290, 258, 268, 257
1408, 479, 140, 290, 289
1409, 468, 506, 471, 466
1410, 474, 208, 567, 487
1411, 553,  68,   9,  69
1412, 230,  66,   8, 405
1413, 505, 458, 508, 464
1414, 492, 533, 489, 212
1415, 290, 297, 268, 296
1416, 472,  56,   1, 211
1417, 346, 569, 347, 338
1418, 289, 260, 270, 259
1419, 268, 296, 269, 258
1420, 477, 140, 468, 290
1421, 289, 139, 288, 260
1422, 416, 122,  18, 278
1423, 479, 259, 258, 100
1424, 241, 219, 212, 220
1425, 261, 262, 287, 294
1426, 294, 271, 295, 261
1427, 147, 271, 295, 148
1428, 295, 261, 288, 294
1429, 261, 271, 295, 260
1430, 148, 112, 147, 271
1431, 139, 288, 260, 102
1432, 111, 272, 271, 148
1433, 565, 111, 148, 272
1434, 139, 288, 102, 138
1435, 139, 259, 101, 260
1436, 548, 137, 287, 286
1437, 295, 260, 270, 289
1438, 479, 139, 437, 140
1439, 564, 293, 149, 150
1440, 294, 272, 271, 261
1441, 295, 271, 270, 260
1442, 549, 136, 135, 105
1443, 284, 343, 544, 351
1444, 558, 292, 132, 285
1445, 564, 149, 565, 110
1446, 548, 549, 263, 105
1447, 544, 555, 558, 566
1448, 564, 292, 293, 150
1449, 342, 134, 283, 133
1450, 274, 433,  16, 108
1451, 555,  22, 133, 284
1452, 564, 109, 433, 150
1453, 408, 555, 414, 336
1454, 558, 132, 131, 285
1455, 548, 286, 136, 137
1456, 408, 337, 124, 566
1457, 560, 134, 283, 341
1458, 342, 133, 335,  31
1459, 549, 106, 264, 105
1460, 557, 283, 281, 349
1461, 544, 131, 132, 351
1462, 555, 414, 336, 335
1463, 558, 559, 292, 285
1464, 278, 277, 346, 275
1465, 433, 555, 414, 408
1466, 558, 264, 107, 108
1467, 278, 339, 569, 123
1468, 555,  22, 433, 414
1469, 288, 261, 260, 102
1470, 355, 278, 347, 346
1471, 130, 366, 129, 282
1472, 350, 283, 342, 341
1473, 287, 262, 261, 103
1474, 548, 262, 104, 263
1475, 549, 105, 135, 106
1476, 186, 129,  32, 365
1477, 128, 340, 280, 416
1478, 560, 280, 127,  20
1479, 348, 339, 347, 280
1480, 349, 350, 341, 283
1481,  19, 450, 126, 281
1482, 560, 280,  20, 128
1483, 450, 537, 125, 126
1484, 276, 444, 121, 120
1485, 536, 380, 389, 388
1486, 556, 122, 276, 121
1487, 416,  18, 123, 278
1488, 569, 338, 277, 123
1489, 278, 280, 122, 556
1490, 432,   3,  48, 224
1491, 560, 134, 341, 407
1492, 276, 120, 119, 362
1493, 346, 338, 277, 569
1494, 566, 336, 408, 337
1495, 186, 364, 185, 450
1496, 444,  17, 121, 120
1497, 450, 365, 129, 186
1498, 257, 479, 290, 258
1499, 534, 228, 551,  60
1500, 489, 212, 242, 219
1501, 345, 346, 275, 354
1502, 124, 337, 177, 338
1503, 177, 408, 337, 124
1504, 433, 109, 274,  16
1505, 564, 293, 559, 273
1506, 564, 565, 273, 110
1507, 530, 146, 145, 402
1508, 115, 146, 268, 530
1509, 288, 102, 138, 261
1510, 268, 146, 269, 296
1511, 259, 289, 479, 258
1512, 270, 296, 269, 113
1513, 530, 402, 115, 146
1514, 525, 301, 158, 152
1515, 498, 291, 494, 298
1516, 482, 530, 116, 266
1517, 498, 297, 291, 298
1518, 404, 530, 116, 482
1519, 523, 264, 107, 558
1520, 565, 111, 110, 149
1521, 559, 263, 264, 274
1522, 550, 272, 262, 273
1523, 337, 338, 277, 346
1524, 559, 286, 293, 292
1525, 550, 287, 294, 293
1526, 138, 137, 287, 103
1527, 262, 272, 294, 261
1528, 494, 436, 143,  55
1529, 270, 271, 295, 147
1530, 530, 115, 116, 267
1531, 287, 103, 137, 262
1532, 147, 112, 113, 270
1533, 267, 290, 268, 257
1534, 481, 485, 425, 480
1535, 497, 488, 480, 527
1536, 508, 464, 458, 453
1537, 520, 403, 401,  87
1538, 492, 469, 457, 455
1539, 498, 297, 290, 291
1540, 490, 495, 526, 491
1541, 300, 519, 302, 156
1542,  15, 452, 361, 119
1543, 548, 137, 104, 262
1544, 537, 557, 126, 281
1545, 550, 262, 263, 273
1546, 566, 277, 562, 345
1547, 558, 132, 544, 131
1548, 548, 104, 136, 105
1549, 548, 105, 263, 104
1550, 564, 433, 109, 274
1551, 148, 111, 112, 271
1552, 137, 104, 262, 103
1553, 558, 274, 264, 108
1554, 138, 103, 261, 102
1555, 549, 136, 286, 285
1556, 550, 272, 294, 262
1557, 147, 296, 270, 113
1558, 565, 294, 148, 149
1559, 288, 287, 261, 138
1560, 139, 101, 102, 260
1561, 258, 289, 479, 290
1562, 413, 367, 193, 368
1563, 138, 287, 261, 103
1564, 494, 291, 472, 142
1565, 290, 501, 267, 297
1566, 411, 207,  37, 307
1567, 470, 504, 507, 471
1568, 478, 257,  98,  99
1569, 501, 257, 267, 256
1570, 477, 508, 257, 501
1571, 484, 489, 244, 254
1572, 481, 418, 426, 424
1573, 496, 494, 472, 211
1574, 477, 508, 453, 478
1575, 514, 511, 244, 489
1576,  23, 499, 463, 503
1577, 482, 265, 266, 117
1578, 296, 258, 268, 290
1579, 568, 446, 154, 327
1580, 300, 302, 318, 299
1581, 508, 501, 255, 256
1582, 524,  14,  12,  84
1583, 479, 437, 139, 100
1584, 504, 505, 502, 507
1585,  99, 479, 100, 437
1586, 258, 257, 479,  99
1587, 489, 243, 244, 253
1588, 484,  83,  84, 254
1589, 514, 265,  96,  95
1590, 513, 514,  95, 255
1591, 146, 114, 269, 113
1592, 516,  85,  86, 254
1593, 258, 296, 269, 259
1594, 508,  97, 460, 453
1595, 482, 118, 117, 418
1596, 118, 424, 481,  96
1597, 524,  96, 424,  14
1598, 260, 261, 288, 295
1599, 513,  13,  11, 459
1600, 294, 261, 288, 287
1601, 125,  17, 279, 444
1602, 538, 222,  49,  50
1603, 231, 233, 234, 390
1604, 515, 244, 243,  82
1605, 512,  11, 244,  82
1606, 379, 370, 228, 371
1607, 513, 459, 460,  13
1608, 524,  85,  84,  12
1609, 524,  84,  85, 254
1610, 540,  48,  49, 223
1611,  88,  89,  52, 251
1612, 516, 254,  86, 253
1613, 520,  88, 251, 252
1614,  90, 249,  91,  51
1615, 266, 482, 117, 116
1616,  91,  92,  50, 248
1617, 540,  93,  94, 246
1618, 514,  95, 255, 265
1619, 536, 389, 380, 381
1620, 546,  75, 237, 236
1621, 538,  92, 247, 222
1622, 543,  70, 235, 245
1623,  95,  96, 514,  83
1624,  91, 249, 248,  51
1625, 520,  87, 252, 253
1626, 520, 251,  88,  52
1627, 520, 251, 219, 252
1628, 352, 562, 353, 344
1629, 275, 345, 562, 277
1630, 494, 218,  56, 211
1631, 489, 253, 252, 243
1632, 251, 250, 220, 241
1633, 251, 250,  52, 220
1634, 484, 254, 244,  83
1635,  89,  52, 251, 250
1636,  45, 462,  46,   2
1637, 251, 219, 242, 241
1638, 142, 499,  23, 503
1639, 252, 251, 219, 242
1640, 278, 275, 346, 276
1641, 552, 225,  46,   2
1642,  90,  52, 220,  51
1643, 558, 106, 523, 264
1644, 249, 248,  51, 221
1645, 249, 248, 221, 239
1646,  89,  52, 250,  90
1647,  92, 222,  50, 248
1648, 220,  90, 249, 250
1649, 560, 557, 348, 349
1650,  91,  51, 248,  50
1651, 247, 238, 237, 215
1652, 107, 562, 108, 277
1653, 490, 211, 212, 219
1654, 538,  93,  92,  49
1655, 539, 247, 237, 215
1656, 541, 547, 216, 236
1657, 540,  94, 432, 245
1658, 543, 235, 541, 245
1659,  53, 520,  52, 219
1660, 543,  47, 217,  46
1661, 512,  11,  83, 244
1662,  21, 461, 131, 135
1663, 248, 247, 222, 238
1664, 250,  52, 220,  90
1665, 289, 260, 259, 139
1666, 107, 353, 361, 523
1667, 515, 243,  81,  82
1668, 275, 107, 353, 361
1669, 211,  39, 496, 212
1670, 556, 278, 347, 355
1671, 250, 240, 249, 220
1672, 242, 515, 243,  81
1673,  39, 470, 492,  40
1674, 266, 482, 501, 265
1675, 517, 521, 219, 429
1676, 248, 221, 239, 238
1677, 472, 211,   1,  39
1678, 472,  23, 142, 291
1679, 213,  40, 212, 241
1680, 515, 457, 465, 454
1681, 472, 291, 141,  23
1682, 487, 503,  38, 463
1683, 381, 230, 536,  65
1684, 242, 212, 241, 219
1685, 438, 213,  40,  41
1686, 490, 218, 211, 219
1687, 507, 467, 465, 457
1688, 533, 241, 242, 212
1689, 523,  15, 461, 452
1690, 518, 425, 427, 421
1691, 250, 241, 240, 220
1692, 213,  79, 438, 241
1693, 241,  80, 438, 533
1694, 241, 240, 213,  79
1695, 241, 240, 220, 213
1696, 278, 276, 355, 556
1697, 240, 239, 249, 213
1698,  79,  78, 240, 213
1699, 492, 457, 507, 515
1700, 489, 253, 244, 254
1701, 249, 213, 220, 240
1702,  78,  41,  77, 239
1703,  41, 213, 239,  78
1704,  79,  41,  78, 213
1705, 512, 515,  82, 244
1706, 401,  53, 520,  52
1707, 239, 238, 221, 214
1708, 221, 213, 220, 249
1709, 240,  78, 239, 213
1710, 239, 214,  77, 238
1711,  64,  65, 389, 536
1712,  51,  90, 249, 220
1713, 520,  88, 252,  87
1714, 247, 215, 222, 238
1715, 248, 221, 238, 222
1716, 498, 502, 505, 290
1717, 238,  76, 237, 215
1718, 477, 502, 501, 290
1719, 239,  41,  77, 214
1720, 533, 438, 440,  80
1721, 521, 219,  53, 218
1722,  77,  42,  76, 214
1723, 214, 213, 239,  41
1724,  76, 215,  42,  43
1725,  75, 215, 237,  76
1726, 539, 237, 247, 246
1727, 540,  93,  49,  48
1728, 541, 246, 245, 236
1729, 213, 239, 249, 221
1730, 516, 417, 421, 403
1731,  77, 214,  41,  42
1732,  77, 214,  76, 238
1733, 539, 246, 236, 237
1734, 554, 224,  47,   3
1735, 238, 222, 214, 215
1736, 238, 222, 221, 214
1737, 546, 216, 547, 236
1738, 546,  75, 236,  74
1739, 546, 215, 237,  75
1740, 547, 235,  74, 236
1741, 538, 222, 223,  49
1742, 547,  74,  73,  45
1743, 541, 547, 235, 217
1744, 539, 215, 216, 223
1745,  76,  43,  75, 215
1746, 547, 217,  44,  45
1747, 547, 235,  73,  74
1748, 546, 215,  43, 216
1749, 539, 222, 215, 223
1750, 549, 106, 135, 461
1751, 385, 377, 543,  46
1752, 538, 247,  93, 246
1753, 552,  46, 543, 462
1754, 553,   9, 462,  69
1755, 462,  69,   9,  73
1756, 546,  44, 216,  43
1757, 556, 121, 279, 280
1758, 413,  71, 367,  10
1759, 389, 381, 233, 390
1760,  47, 377, 543, 554
1761, 248, 221,  50,  51
1762, 277, 346, 275, 345
1763, 562, 353, 275, 107
1764, 374, 234, 367,  71
1765, 557, 279, 126, 127
1766, 554, 543, 563, 376
1767, 108, 558, 562, 107
1768, 543,  70,  69, 235
1769, 449,  63,  64, 229
1770, 489, 252, 242, 243
1771, 523, 361, 352, 353
1772, 390, 381, 233, 382
1773, 217, 462,  46,  45
1774,  67, 231, 232, 398
1775, 432,  94,  10, 245
*Nset, nset=AllCells, generate
   1,  569,    1
*Elset, elset=AllCells, generate
    1,  1775,     1
** Section: IN718_Section
*Solid Section, elset=AllCells, material=IN718
,
*End Part
**  
**
** ASSEMBLY
**
*Assembly, name=Assembly
**  
*Instance, name=TO_Specimen-1, part=TO_Specimen
*End Instance
**  
*Node
      1,           0.,   132.169998,         12.5
*Node
      2,  -23.2999992,          14.,         12.5
*Node
      3,   23.2999992,          14.,         12.5
*Node
      4,           0.,   132.169998,         12.5
*Nset, nset=LowerLeftPinHole, instance=TO_Specimen-1
  31,  32, 173, 174, 175, 176, 177, 178, 179, 180, 181, 182, 183, 184, 185, 186
 335, 336, 337, 338, 339, 340, 341, 342, 343, 344, 345, 346, 347, 348, 349, 350
 351, 352, 353, 354, 355, 356, 357, 358, 359, 360, 361, 362, 363, 364, 365, 366
*Elset, elset=LowerLeftPinHole, instance=TO_Specimen-1
  203,  209,  253,  334,  382,  491,  536,  580,  583,  584,  596,  606,  636,  639,  649,  650
  651,  656,  658,  661,  685,  736,  858,  866,  923,  933, 1009, 1012, 1067, 1070, 1072, 1073
 1085, 1087, 1088, 1091, 1094, 1096, 1099, 1100, 1101, 1105, 1109, 1114, 1115, 1117, 1128, 1133
 1134, 1136, 1143, 1145, 1153, 1154, 1158, 1164, 1165, 1170, 1177, 1178, 1182, 1183, 1185, 1227
 1228, 1270, 1284, 1417, 1458, 1470, 1472, 1476, 1479, 1480, 1495, 1501, 1502, 1523, 1628, 1771
*Nset, nset=LowerRightPinHole, instance=TO_Specimen-1
  33,  34, 187, 188, 189, 190, 191, 192, 193, 194, 195, 196, 197, 198, 199, 200
 367, 368, 369, 370, 371, 372, 373, 374, 375, 376, 377, 378, 379, 380, 381, 382
 383, 384, 385, 386, 387, 388, 389, 390, 391, 392, 393, 394, 395, 396, 397, 398
*Elset, elset=LowerRightPinHole, instance=TO_Specimen-1
   98,  188,  207,  316,  530,  615,  642,  644,  645,  648,  660,  691,  692,  694,  741,  766
  897,  899,  917,  919,  921,  922,  924,  925,  926,  927,  931,  934,  936,  945,  946,  947
  950,  951,  954,  955,  957,  960,  970,  973,  975,  978,  985,  986,  988,  991,  996, 1000
 1001, 1002, 1007, 1011, 1013, 1017, 1036, 1038, 1039, 1045, 1048, 1049, 1051, 1052, 1054, 1055
 1057, 1058, 1060, 1068, 1081, 1086, 1155, 1210, 1214, 1288, 1485, 1562, 1606, 1619, 1759, 1772
*Nset, nset=UpperPinHole, instance=TO_Specimen-1
  29,  30, 159, 160, 161, 162, 163, 164, 165, 166, 167, 168, 169, 170, 171, 172
 303, 304, 305, 306, 307, 308, 309, 310, 311, 312, 313, 314, 315, 316, 317, 318
 319, 320, 321, 322, 323, 324, 325, 326, 327, 328, 329, 330, 331, 332, 333, 334
*Elset, elset=UpperPinHole, instance=TO_Specimen-1
    3,   80,  226,  289,  374,  435,  452,  620,  626,  629,  673,  675,  680,  690,  701,  702
  787,  816,  849,  852,  901,  911,  915, 1102, 1104, 1112, 1130, 1179, 1189, 1191, 1192, 1193
 1194, 1195, 1198, 1201, 1203, 1209, 1212, 1213, 1215, 1217, 1221, 1222, 1226, 1231, 1233, 1238
 1239, 1240, 1242, 1243, 1244, 1249, 1255, 1258, 1259, 1265, 1272, 1274, 1281, 1282, 1283, 1292
 1295, 1296, 1298, 1299, 1301, 1310, 1314, 1317, 1318, 1323, 1326, 1333, 1335, 1341, 1350, 1359
*Nset, nset=UpperRP
 4,
*Elset, elset=_LeftBlockBottom_S3, internal, instance=TO_Specimen-1
  384,  630, 1119, 1156, 1286, 1478, 1482, 1757, 1765
*Elset, elset=_LeftBlockBottom_S4, internal, instance=TO_Specimen-1
 1083, 1187
*Elset, elset=_LeftBlockBottom_S1, internal, instance=TO_Specimen-1
 1601,
*Surface, type=ELEMENT, name=LeftBlockBottom
_LeftBlockBottom_S3, S3
_LeftBlockBottom_S4, S4
_LeftBlockBottom_S1, S1
*Elset, elset=_RightBlockBottom_S3, internal, instance=TO_Specimen-1
  288,  320,  616,  749,  938,  976,  989, 1023, 1205, 1208, 1769
*Elset, elset=_RightBlockBottom_S1, internal, instance=TO_Specimen-1
 1412,
*Surface, type=ELEMENT, name=RightBlockBottom
_RightBlockBottom_S3, S3
_RightBlockBottom_S1, S1
*Elset, elset=_UpperPinSurface_S4, internal, instance=TO_Specimen-1
    3,   80,  226,  629,  680,  701,  915, 1102, 1104, 1212, 1272, 1281, 1282, 1283, 1310, 1326
 1335, 1350
*Elset, elset=_UpperPinSurface_S3, internal, instance=TO_Specimen-1
  289,  374,  435,  452,  620,  626,  673,  675,  702,  787,  849,  852,  911, 1112, 1189, 1191
 1192, 1195, 1198, 1213, 1215, 1217, 1233, 1238, 1239, 1240, 1242, 1243, 1255, 1258, 1259, 1274
 1295, 1296, 1298, 1299, 1301, 1314, 1317, 1318
*Elset, elset=_UpperPinSurface_S2, internal, instance=TO_Specimen-1
  690, 1203, 1209, 1226, 1231, 1249, 1265, 1292
*Elset, elset=_UpperPinSurface_S1, internal, instance=TO_Specimen-1
  816,  901, 1130, 1179, 1193, 1194, 1201, 1221, 1222, 1244, 1323, 1333, 1341, 1359
*Surface, type=ELEMENT, name=UpperPinSurface
_UpperPinSurface_S4, S4
_UpperPinSurface_S3, S3
_UpperPinSurface_S2, S2
_UpperPinSurface_S1, S1
** Constraint: UpperPinCoupling
*Coupling, constraint name=UpperPinCoupling, ref node=UpperRP, surface=UpperPinSurface
*Kinematic
*End Assembly
** 
** MATERIALS
** 
*Material, name=IN718
*Density
 8.19e-09,
*Elastic
198400., 0.3
*Plastic
 980.,     0.
1000.,  5e-05
1050., 0.0005
1100., 0.0015
1150., 0.0035
1191.,  0.006
1250.,  0.012
1300.,   0.02
1350.,   0.03
1400.,  0.045
** 
** BOUNDARY CONDITIONS
** 
** Name: LowerLeftPin_BC Type: Displacement/Rotation
*Boundary
LowerLeftPinHole, 2, 2
LowerLeftPinHole, 3, 3
** Name: LowerRightPin_BC Type: Displacement/Rotation
*Boundary
LowerRightPinHole, 2, 2
LowerRightPinHole, 3, 3
** ----------------------------------------------------------------
** 
** STEP: FatigueTest
** 
*Step, name=FatigueTest, nlgeom=YES
*Static
0.1, 1., 1e-08, 1.
** 
** LOADS
** 
** Name: VerticalLoad_20kN   Type: Concentrated force
*Cload
UpperRP, 2, 20000.
** 
** OUTPUT REQUESTS
** 
*Restart, write, frequency=0
** 
** FIELD OUTPUT: F-Output-1
** 
*Output, field, variable=PRESELECT
** 
** HISTORY OUTPUT: H-Output-1
** 
*Output, history, variable=PRESELECT
*End Step
** ----------------------------------------------------------------
** 
** STEP: TODesign
** 
*Step, name=TODesign, nlgeom=YES
*Static
0.1, 1., 1e-08, 1.
** 
** OUTPUT REQUESTS
** 
*Restart, write, frequency=0
** 
** FIELD OUTPUT: F-Output-1
** 
*Output, field, variable=PRESELECT
** 
** HISTORY OUTPUT: H-Output-1
** 
*Output, history, variable=PRESELECT
*End Step
** ----------------------------------------------------------------
** 
** STEP: PlasticityTest
** 
*Step, name=PlasticityTest, nlgeom=YES, inc=200
*Static
0.05, 1., 1e-10, 0.1
** 
** LOADS
** 
** Name: VerticalLoad_20kN   Type: Concentrated force
*Cload
UpperRP, 2, 100000.
** 
** OUTPUT REQUESTS
** 
*Restart, write, frequency=0
** 
** FIELD OUTPUT: F-Output-1
** 
*Output, field, variable=PRESELECT
** 
** HISTORY OUTPUT: H-Output-1
** 
*Output, history, variable=PRESELECT
*End Step
