*Heading
** Job name: Job_FatigueTest_v16 Model name: Experiment4_TO_Specimen
** Generated by: Abaqus/CAE Learning Edition 2025
*Preprint, echo=NO, model=NO, history=NO, contact=NO
**
** PARTS
**
*Part, name=TO_Specimen
*End Part
**  
**
** ASSEMBLY
**
*Assembly, name=Assembly
**  
*Instance, name=TO_Specimen-1, part=TO_Specimen
*End Instance
**  
*Node
      1,           0.,   132.169998,         12.5
*Nset, nset=UpperRP
 1,
** Constraint: UpperPinCoupling
*Coupling, constraint name=UpperPinCoupling, ref node=UpperRP, surface=UpperPinSurface
*Kinematic
*End Assembly
** 
** MATERIALS
** 
*Material, name=IN718
*Density
 8.19e-09,
*Elastic
200000., 0.3
*Plastic
 980.,   0.
1100., 0.05
1241.,  0.1
** 
** BOUNDARY CONDITIONS
** 
** Name: LowerLeftPin_BC Type: Displacement/Rotation
*Boundary
LowerLeftPinHole, 2, 2
LowerLeftPinHole, 3, 3
** Name: LowerRightPin_BC Type: Displacement/Rotation
*Boundary
LowerRightPinHole, 2, 2
LowerRightPinHole, 3, 3
** ----------------------------------------------------------------
** 
** STEP: FatigueTest
** 
*Step, name=FatigueTest, nlgeom=YES
*Static
0.1, 1., 1e-08, 1.
** 
** LOADS
** 
** Name: VerticalLoad_20kN   Type: Concentrated force
*Cload
UpperRP, 2, 20000.
** 
** OUTPUT REQUESTS
** 
*Restart, write, frequency=0
** 
** FIELD OUTPUT: F-Output-1
** 
*Output, field
*Node Output
RF, U
*Element Output, directions=YES
E, PE, PEEQ, S
** 
** HISTORY OUTPUT: H-Output-1
** 
*Output, history, variable=PRESELECT
*End Step
