*Heading
 Cantilever beam analysis
** Job name: CantileverBeam Model name: CantileverBeam
** Generated by: Abaqus/CAE Learning Edition 2025
*Preprint, echo=NO, model=NO, history=NO, contact=NO
**
** PARTS
**
*Part, name=Beam
*Node
      1,         100.,          10.,          10.
      2,         100.,           5.,          10.
      3,         100.,           0.,          10.
      4,         100.,          10.,           5.
      5,         100.,           5.,           5.
      6,         100.,           0.,           5.
      7,         100.,          10.,           0.
      8,         100.,           5.,           0.
      9,         100.,           0.,           0.
     10,          95.,          10.,          10.
     11,          95.,           5.,          10.
     12,          95.,           0.,          10.
     13,          95.,          10.,           5.
     14,          95.,           5.,           5.
     15,          95.,           0.,           5.
     16,          95.,          10.,           0.
     17,          95.,           5.,           0.
     18,          95.,           0.,           0.
     19,          90.,          10.,          10.
     20,          90.,           5.,          10.
     21,          90.,           0.,          10.
     22,          90.,          10.,           5.
     23,          90.,           5.,           5.
     24,          90.,           0.,           5.
     25,          90.,          10.,           0.
     26,          90.,           5.,           0.
     27,          90.,           0.,           0.
     28,          85.,          10.,          10.
     29,          85.,           5.,          10.
     30,          85.,           0.,          10.
     31,          85.,          10.,           5.
     32,          85.,           5.,           5.
     33,          85.,           0.,           5.
     34,          85.,          10.,           0.
     35,          85.,           5.,           0.
     36,          85.,           0.,           0.
     37,          80.,          10.,          10.
     38,          80.,           5.,          10.
     39,          80.,           0.,          10.
     40,          80.,          10.,           5.
     41,          80.,           5.,           5.
     42,          80.,           0.,           5.
     43,          80.,          10.,           0.
     44,          80.,           5.,           0.
     45,          80.,           0.,           0.
     46,          75.,          10.,          10.
     47,          75.,           5.,          10.
     48,          75.,           0.,          10.
     49,          75.,          10.,           5.
     50,          75.,           5.,           5.
     51,          75.,           0.,           5.
     52,          75.,          10.,           0.
     53,          75.,           5.,           0.
     54,          75.,           0.,           0.
     55,          70.,          10.,          10.
     56,          70.,           5.,          10.
     57,          70.,           0.,          10.
     58,          70.,          10.,           5.
     59,          70.,           5.,           5.
     60,          70.,           0.,           5.
     61,          70.,          10.,           0.
     62,          70.,           5.,           0.
     63,          70.,           0.,           0.
     64,          65.,          10.,          10.
     65,          65.,           5.,          10.
     66,          65.,           0.,          10.
     67,          65.,          10.,           5.
     68,          65.,           5.,           5.
     69,          65.,           0.,           5.
     70,          65.,          10.,           0.
     71,          65.,           5.,           0.
     72,          65.,           0.,           0.
     73,          60.,          10.,          10.
     74,          60.,           5.,          10.
     75,          60.,           0.,          10.
     76,          60.,          10.,           5.
     77,          60.,           5.,           5.
     78,          60.,           0.,           5.
     79,          60.,          10.,           0.
     80,          60.,           5.,           0.
     81,          60.,           0.,           0.
     82,          55.,          10.,          10.
     83,          55.,           5.,          10.
     84,          55.,           0.,          10.
     85,          55.,          10.,           5.
     86,          55.,           5.,           5.
     87,          55.,           0.,           5.
     88,          55.,          10.,           0.
     89,          55.,           5.,           0.
     90,          55.,           0.,           0.
     91,          50.,          10.,          10.
     92,          50.,           5.,          10.
     93,          50.,           0.,          10.
     94,          50.,          10.,           5.
     95,          50.,           5.,           5.
     96,          50.,           0.,           5.
     97,          50.,          10.,           0.
     98,          50.,           5.,           0.
     99,          50.,           0.,           0.
    100,          45.,          10.,          10.
    101,          45.,           5.,          10.
    102,          45.,           0.,          10.
    103,          45.,          10.,           5.
    104,          45.,           5.,           5.
    105,          45.,           0.,           5.
    106,          45.,          10.,           0.
    107,          45.,           5.,           0.
    108,          45.,           0.,           0.
    109,          40.,          10.,          10.
    110,          40.,           5.,          10.
    111,          40.,           0.,          10.
    112,          40.,          10.,           5.
    113,          40.,           5.,           5.
    114,          40.,           0.,           5.
    115,          40.,          10.,           0.
    116,          40.,           5.,           0.
    117,          40.,           0.,           0.
    118,          35.,          10.,          10.
    119,          35.,           5.,          10.
    120,          35.,           0.,          10.
    121,          35.,          10.,           5.
    122,          35.,           5.,           5.
    123,          35.,           0.,           5.
    124,          35.,          10.,           0.
    125,          35.,           5.,           0.
    126,          35.,           0.,           0.
    127,          30.,          10.,          10.
    128,          30.,           5.,          10.
    129,          30.,           0.,          10.
    130,          30.,          10.,           5.
    131,          30.,           5.,           5.
    132,          30.,           0.,           5.
    133,          30.,          10.,           0.
    134,          30.,           5.,           0.
    135,          30.,           0.,           0.
    136,          25.,          10.,          10.
    137,          25.,           5.,          10.
    138,          25.,           0.,          10.
    139,          25.,          10.,           5.
    140,          25.,           5.,           5.
    141,          25.,           0.,           5.
    142,          25.,          10.,           0.
    143,          25.,           5.,           0.
    144,          25.,           0.,           0.
    145,          20.,          10.,          10.
    146,          20.,           5.,          10.
    147,          20.,           0.,          10.
    148,          20.,          10.,           5.
    149,          20.,           5.,           5.
    150,          20.,           0.,           5.
    151,          20.,          10.,           0.
    152,          20.,           5.,           0.
    153,          20.,           0.,           0.
    154,          15.,          10.,          10.
    155,          15.,           5.,          10.
    156,          15.,           0.,          10.
    157,          15.,          10.,           5.
    158,          15.,           5.,           5.
    159,          15.,           0.,           5.
    160,          15.,          10.,           0.
    161,          15.,           5.,           0.
    162,          15.,           0.,           0.
    163,          10.,          10.,          10.
    164,          10.,           5.,          10.
    165,          10.,           0.,          10.
    166,          10.,          10.,           5.
    167,          10.,           5.,           5.
    168,          10.,           0.,           5.
    169,          10.,          10.,           0.
    170,          10.,           5.,           0.
    171,          10.,           0.,           0.
    172,           5.,          10.,          10.
    173,           5.,           5.,          10.
    174,           5.,           0.,          10.
    175,           5.,          10.,           5.
    176,           5.,           5.,           5.
    177,           5.,           0.,           5.
    178,           5.,          10.,           0.
    179,           5.,           5.,           0.
    180,           5.,           0.,           0.
    181,           0.,          10.,          10.
    182,           0.,           5.,          10.
    183,           0.,           0.,          10.
    184,           0.,          10.,           5.
    185,           0.,           5.,           5.
    186,           0.,           0.,           5.
    187,           0.,          10.,           0.
    188,           0.,           5.,           0.
    189,           0.,           0.,           0.
*Element, type=C3D8R
 1,  10,  11,  14,  13,   1,   2,   5,   4
 2,  11,  12,  15,  14,   2,   3,   6,   5
 3,  13,  14,  17,  16,   4,   5,   8,   7
 4,  14,  15,  18,  17,   5,   6,   9,   8
 5,  19,  20,  23,  22,  10,  11,  14,  13
 6,  20,  21,  24,  23,  11,  12,  15,  14
 7,  22,  23,  26,  25,  13,  14,  17,  16
 8,  23,  24,  27,  26,  14,  15,  18,  17
 9,  28,  29,  32,  31,  19,  20,  23,  22
10,  29,  30,  33,  32,  20,  21,  24,  23
11,  31,  32,  35,  34,  22,  23,  26,  25
12,  32,  33,  36,  35,  23,  24,  27,  26
13,  37,  38,  41,  40,  28,  29,  32,  31
14,  38,  39,  42,  41,  29,  30,  33,  32
15,  40,  41,  44,  43,  31,  32,  35,  34
16,  41,  42,  45,  44,  32,  33,  36,  35
17,  46,  47,  50,  49,  37,  38,  41,  40
18,  47,  48,  51,  50,  38,  39,  42,  41
19,  49,  50,  53,  52,  40,  41,  44,  43
20,  50,  51,  54,  53,  41,  42,  45,  44
21,  55,  56,  59,  58,  46,  47,  50,  49
22,  56,  57,  60,  59,  47,  48,  51,  50
23,  58,  59,  62,  61,  49,  50,  53,  52
24,  59,  60,  63,  62,  50,  51,  54,  53
25,  64,  65,  68,  67,  55,  56,  59,  58
26,  65,  66,  69,  68,  56,  57,  60,  59
27,  67,  68,  71,  70,  58,  59,  62,  61
28,  68,  69,  72,  71,  59,  60,  63,  62
29,  73,  74,  77,  76,  64,  65,  68,  67
30,  74,  75,  78,  77,  65,  66,  69,  68
31,  76,  77,  80,  79,  67,  68,  71,  70
32,  77,  78,  81,  80,  68,  69,  72,  71
33,  82,  83,  86,  85,  73,  74,  77,  76
34,  83,  84,  87,  86,  74,  75,  78,  77
35,  85,  86,  89,  88,  76,  77,  80,  79
36,  86,  87,  90,  89,  77,  78,  81,  80
37,  91,  92,  95,  94,  82,  83,  86,  85
38,  92,  93,  96,  95,  83,  84,  87,  86
39,  94,  95,  98,  97,  85,  86,  89,  88
40,  95,  96,  99,  98,  86,  87,  90,  89
41, 100, 101, 104, 103,  91,  92,  95,  94
42, 101, 102, 105, 104,  92,  93,  96,  95
43, 103, 104, 107, 106,  94,  95,  98,  97
44, 104, 105, 108, 107,  95,  96,  99,  98
45, 109, 110, 113, 112, 100, 101, 104, 103
46, 110, 111, 114, 113, 101, 102, 105, 104
47, 112, 113, 116, 115, 103, 104, 107, 106
48, 113, 114, 117, 116, 104, 105, 108, 107
49, 118, 119, 122, 121, 109, 110, 113, 112
50, 119, 120, 123, 122, 110, 111, 114, 113
51, 121, 122, 125, 124, 112, 113, 116, 115
52, 122, 123, 126, 125, 113, 114, 117, 116
53, 127, 128, 131, 130, 118, 119, 122, 121
54, 128, 129, 132, 131, 119, 120, 123, 122
55, 130, 131, 134, 133, 121, 122, 125, 124
56, 131, 132, 135, 134, 122, 123, 126, 125
57, 136, 137, 140, 139, 127, 128, 131, 130
58, 137, 138, 141, 140, 128, 129, 132, 131
59, 139, 140, 143, 142, 130, 131, 134, 133
60, 140, 141, 144, 143, 131, 132, 135, 134
61, 145, 146, 149, 148, 136, 137, 140, 139
62, 146, 147, 150, 149, 137, 138, 141, 140
63, 148, 149, 152, 151, 139, 140, 143, 142
64, 149, 150, 153, 152, 140, 141, 144, 143
65, 154, 155, 158, 157, 145, 146, 149, 148
66, 155, 156, 159, 158, 146, 147, 150, 149
67, 157, 158, 161, 160, 148, 149, 152, 151
68, 158, 159, 162, 161, 149, 150, 153, 152
69, 163, 164, 167, 166, 154, 155, 158, 157
70, 164, 165, 168, 167, 155, 156, 159, 158
71, 166, 167, 170, 169, 157, 158, 161, 160
72, 167, 168, 171, 170, 158, 159, 162, 161
73, 172, 173, 176, 175, 163, 164, 167, 166
74, 173, 174, 177, 176, 164, 165, 168, 167
75, 175, 176, 179, 178, 166, 167, 170, 169
76, 176, 177, 180, 179, 167, 168, 171, 170
77, 181, 182, 185, 184, 172, 173, 176, 175
78, 182, 183, 186, 185, 173, 174, 177, 176
79, 184, 185, 188, 187, 175, 176, 179, 178
80, 185, 186, 189, 188, 176, 177, 180, 179
*Nset, nset=AllCells, generate
   1,  189,    1
*Elset, elset=AllCells, generate
  1,  80,   1
** Section: BeamSection
*Solid Section, elset=AllCells, material=Steel
,
*End Part
**  
**
** ASSEMBLY
**
*Assembly, name=Assembly
**  
*Instance, name=Beam-1, part=Beam
*End Instance
**  
*Nset, nset=FixedEnd, instance=Beam-1, generate
 181,  189,    1
*Elset, elset=FixedEnd, instance=Beam-1, generate
 77,  80,   1
*Elset, elset=_LoadSurface_S2, internal, instance=Beam-1, generate
 1,  4,  1
*Surface, type=ELEMENT, name=LoadSurface
_LoadSurface_S2, S2
*End Assembly
** 
** MATERIALS
** 
*Material, name=Steel
*Density
 7.85e-09,
*Elastic
210000., 0.3
** 
** BOUNDARY CONDITIONS
** 
** Name: FixedSupport Type: Symmetry/Antisymmetry/Encastre
*Boundary
FixedEnd, ENCASTRE
** ----------------------------------------------------------------
** 
** STEP: LoadStep
** 
*Step, name=LoadStep, nlgeom=NO
*Static
0.1, 1., 1e-06, 1.
** 
** LOADS
** 
** Name: AppliedForce   Type: Surface traction
*Dsload
LoadSurface, TRVEC, -10., 0., 1., 0.
** 
** OUTPUT REQUESTS
** 
*Restart, write, frequency=0
** 
** FIELD OUTPUT: F-Output-1
** 
*Output, field
*Node Output, variable=PRESELECT
*Element Output, directions=YES
E, S
** 
** HISTORY OUTPUT: H-Output-1
** 
*Output, history, variable=PRESELECT
*End Step
