*Heading
** Job name: Job_100kN Model name: Experiment4_TO_Specimen
** Generated by: Abaqus/CAE Learning Edition 2025
*Preprint, echo=NO, model=NO, history=NO, contact=NO
**
** PARTS
**
*Part, name=TO_Specimen
*Node
      1,   14.3000002,          14.,   18.8500004
      2,   32.2999992,          14.,   18.8500004
      3,  -32.2999992,          14.,   18.8500004
      4,  -14.3000002,          14.,   18.8500004
      5,           5.,   106.169998,          25.
      6,   32.2999992,          28.,          25.
      7,   32.2999992,          28.,           0.
      8,           5.,   106.169998,           0.
      9,   32.2999992,           0.,          25.
     10,   32.2999992,           0.,           0.
     11,   14.3000002,           0.,          25.
     12,   14.3000002,           0.,           0.
     13,   14.3000002,          28.,          25.
     14,   14.3000002,          28.,           0.
     15,           4.,          63.,          25.
     16,           4.,          63.,           0.
     17,          -4.,          63.,          25.
     18,          -4.,          63.,           0.
     19,  -14.3000002,          28.,          25.
     20,  -14.3000002,          28.,           0.
     21,  -14.3000002,           0.,          25.
     22,  -14.3000002,           0.,           0.
     23,  -32.2999992,           0.,          25.
     24,  -32.2999992,           0.,           0.
     25,  -32.2999992,          28.,          25.
     26,  -32.2999992,          28.,           0.
     27,          -5.,   106.169998,          25.
     28,          -5.,   106.169998,           0.
     29,           9.,   118.169998,          25.
     30,           9.,   118.169998,           0.
     31,          -9.,   118.169998,          25.
     32,          -9.,   118.169998,           0.
     33,          -9.,   146.169998,           0.
     34,           9.,   146.169998,           0.
     35,          -9.,   146.169998,          25.
     36,           9.,   146.169998,          25.
     37,           9.,   132.169998,   18.8500004
     38,          -9.,   132.169998,   18.8500004
     39,   14.3000002,   9.50987148,   16.9901276
     40,   14.3000002,    7.6500001,         12.5
     41,   14.3000002,   9.50987148,   8.00987148
     42,   14.3000002,          14.,    6.1500001
     43,   14.3000002,   18.4901276,   8.00987148
     44,   14.3000002,   20.3500004,         12.5
     45,   14.3000002,   18.4901276,   16.9901276
     46,   32.2999992,   18.4901276,   16.9901276
     47,   32.2999992,   20.3500004,         12.5
     48,   32.2999992,   18.4901276,   8.00987148
     49,   32.2999992,          14.,    6.1500001
     50,   32.2999992,   9.50987148,   8.00987148
     51,   32.2999992,    7.6500001,         12.5
     52,   32.2999992,   9.50987148,   16.9901276
     53,  -32.2999992,   9.50987148,   16.9901276
     54,  -32.2999992,    7.6500001,         12.5
     55,  -32.2999992,   9.50987148,   8.00987148
     56,  -32.2999992,          14.,    6.1500001
     57,  -32.2999992,   18.4901276,   8.00987148
     58,  -32.2999992,   20.3500004,         12.5
     59,  -32.2999992,   18.4901276,   16.9901276
     60,  -14.3000002,   18.4901276,   16.9901276
     61,  -14.3000002,   20.3500004,         12.5
     62,  -14.3000002,   18.4901276,   8.00987148
     63,  -14.3000002,          14.,    6.1500001
     64,  -14.3000002,   9.50987148,   8.00987148
     65,  -14.3000002,    7.6500001,         12.5
     66,  -14.3000002,   9.50987148,   16.9901276
     67,   7.37720108,    99.614296,          25.
     68,   9.90385342,   93.1150589,          25.
     69,   12.7251291,   86.7388458,          25.
     70,   15.9245405,   80.5435867,          25.
     71,   19.3221455,   74.4538803,          25.
     72,   22.6663532,   68.3349304,          25.
     73,    25.695507,   62.0554657,          25.
     74,    28.117857,   55.5203438,          25.
     75,   29.8121796,   48.7587166,          25.
     76,   30.9450855,   41.8792534,          25.
     77,    31.712019,   34.9485626,          25.
     78,   32.2999992,          28.,        18.75
     79,   32.2999992,          28.,         12.5
     80,   32.2999992,          28.,         6.25
     81,    31.712019,   34.9485588,           0.
     82,   30.9450855,   41.8792534,           0.
     83,   29.8121796,   48.7587166,           0.
     84,    28.117857,   55.5203438,           0.
     85,    25.695507,   62.0554657,           0.
     86,   22.6663532,   68.3349304,           0.
     87,   19.3221455,   74.4538803,           0.
     88,   15.9245405,   80.5435867,           0.
     89,   12.7251291,   86.7388458,           0.
     90,   9.90385342,   93.1150589,           0.
     91,    7.3772006,    99.614296,           0.
     92,           5.,   106.169998,         6.25
     93,           5.,   106.169998,         12.5
     94,           5.,   106.169998,        18.75
     95,   32.2999992,          21.,          25.
     96,   32.2999992,          14.,          25.
     97,   32.2999992,           7.,          25.
     98,   32.2999992,           0.,        18.75
     99,   32.2999992,           0.,         12.5
    100,   32.2999992,           0.,         6.25
    101,   32.2999992,           7.,           0.
    102,   32.2999992,          14.,           0.
    103,   32.2999992,          21.,           0.
    104,   26.2999992,           0.,          25.
    105,   20.2999992,           0.,          25.
    106,   14.3000002,           0.,        18.75
    107,   14.3000002,           0.,         12.5
    108,   14.3000002,           0.,         6.25
    109,   20.2999992,           0.,           0.
    110,   26.2999992,           0.,           0.
    111,   14.3000002,           7.,          25.
    112,   14.3000002,          14.,          25.
    113,   14.3000002,          21.,          25.
    114,   14.3000002,          28.,        18.75
    115,   14.3000002,          28.,         12.5
    116,   14.3000002,          28.,         6.25
    117,   14.3000002,          21.,           0.
    118,   14.3000002,          14.,           0.
    119,   14.3000002,           7.,           0.
    120,   16.4958019,    34.958828,          25.
    121,   18.1804276,   42.0563393,          25.
    122,   19.1123486,   49.2906723,          25.
    123,   19.3199673,   56.5828514,          25.
    124,   18.9374561,   63.8686028,          25.
    125,   17.8895893,     71.08638,          25.
    126,   16.5595989,   75.4919891,          25.
    127,   15.3512239,   77.4036789,          25.
    128,   13.9619312,   77.9974442,          25.
    129,   12.5718689,    77.343132,          25.
    130,   10.5105085,   74.9832382,          25.
    131,   7.26831341,   69.4836807,          25.
    132,           4.,          63.,        18.75
    133,           4.,          63.,         12.5
    134,           4.,          63.,         6.25
    135,   7.26831341,   69.4836807,           0.
    136,   10.5105085,   74.9832382,           0.
    137,   12.5718689,    77.343132,           0.
    138,   13.9619322,   77.9974442,           0.
    139,   15.3512249,   77.4036789,           0.
    140,   16.5595989,   75.4919891,           0.
    141,   17.8895893,     71.08638,           0.
    142,   18.9374542,   63.8686066,           0.
    143,   19.3199673,   56.5828552,           0.
    144,   19.1123486,   49.2906761,           0.
    145,   18.1804276,   42.0563431,           0.
    146,   16.4958019,   34.9588318,           0.
    147,          -4.,          63.,        18.75
    148,          -4.,          63.,         12.5
    149,          -4.,          63.,         6.25
    150,  -7.26831341,   69.4836807,          25.
    151,  -10.5105085,   74.9832382,          25.
    152,  -12.5718689,    77.343132,          25.
    153,  -13.9619312,   77.9974442,          25.
    154,  -15.3512239,   77.4036789,          25.
    155,  -16.5595989,   75.4919891,          25.
    156,  -17.8895893,     71.08638,          25.
    157,  -18.9374561,   63.8686028,          25.
    158,  -19.3199673,   56.5828514,          25.
    159,  -19.1123486,   49.2906723,          25.
    160,  -18.1804276,   42.0563393,          25.
    161,  -16.4958019,    34.958828,          25.
    162,  -14.3000002,          28.,        18.75
    163,  -14.3000002,          28.,         12.5
    164,  -14.3000002,          28.,         6.25
    165,  -16.4958019,    34.958828,           0.
    166,  -18.1804276,   42.0563393,           0.
    167,  -19.1123486,   49.2906723,           0.
    168,  -19.3199673,   56.5828514,           0.
    169,  -18.9374561,   63.8685989,           0.
    170,  -17.8895912,   71.0863724,           0.
    171,  -16.5596008,   75.4919815,           0.
    172,  -15.3512278,   77.4036789,           0.
    173,   -13.961936,   77.9974442,           0.
    174,  -12.5718737,    77.343132,           0.
    175,  -10.5105124,   74.9832458,           0.
    176,  -7.26831722,   69.4836884,           0.
    177,  -14.3000002,          21.,          25.
    178,  -14.3000002,          14.,          25.
    179,  -14.3000002,           7.,          25.
    180,  -14.3000002,           0.,        18.75
    181,  -14.3000002,           0.,         12.5
    182,  -14.3000002,           0.,         6.25
    183,  -14.3000002,           7.,           0.
    184,  -14.3000002,          14.,           0.
    185,  -14.3000002,          21.,           0.
    186,  -20.2999992,           0.,          25.
    187,  -26.2999992,           0.,          25.
    188,  -32.2999992,           0.,        18.75
    189,  -32.2999992,           0.,         12.5
    190,  -32.2999992,           0.,         6.25
    191,  -26.2999992,           0.,           0.
    192,  -20.2999992,           0.,           0.
    193,  -32.2999992,           7.,          25.
    194,  -32.2999992,          14.,          25.
    195,  -32.2999992,          21.,          25.
    196,  -32.2999992,          28.,        18.75
    197,  -32.2999992,          28.,         12.5
    198,  -32.2999992,          28.,         6.25
    199,  -32.2999992,          21.,           0.
    200,  -32.2999992,          14.,           0.
    201,  -32.2999992,           7.,           0.
    202,   -31.712019,   34.9485588,          25.
    203,  -30.9450855,   41.8792534,          25.
    204,  -29.8121796,   48.7587166,          25.
    205,   -28.117857,   55.5203438,          25.
    206,   -25.695507,   62.0554657,          25.
    207,  -22.6663532,   68.3349304,          25.
    208,  -19.3221455,   74.4538803,          25.
    209,  -15.9245405,   80.5435867,          25.
    210,  -12.7251291,   86.7388458,          25.
    211,  -9.90385437,   93.1150589,          25.
    212,  -7.37720108,    99.614296,          25.
    213,          -5.,   106.169998,        18.75
    214,          -5.,   106.169998,         12.5
    215,          -5.,   106.169998,         6.25
    216,  -7.37720108,    99.614296,           0.
    217,  -9.90385342,   93.1150589,           0.
    218,  -12.7251291,   86.7388458,           0.
    219,  -15.9245405,   80.5435867,           0.
    220,  -19.3221455,   74.4538803,           0.
    221,  -22.6663532,   68.3349304,           0.
    222,   -25.695507,   62.0554619,           0.
    223,   -28.117857,   55.5203438,           0.
    224,  -29.8121796,   48.7587166,           0.
    225,  -30.9450855,   41.8792534,           0.
    226,   -31.712019,   34.9485588,           0.
    227,           7.,   112.169998,          25.
    228,           7.,   112.169998,           0.
    229,           9.,   118.169998,         6.25
    230,           9.,   118.169998,         12.5
    231,           9.,   118.169998,        18.75
    232,          -7.,   112.169998,          25.
    233,          -9.,   118.169998,        18.75
    234,          -9.,   118.169998,         12.5
    235,          -9.,   118.169998,         6.25
    236,          -7.,   112.169998,           0.
    237,          -9.,   125.169998,           0.
    238,          -9.,   132.169998,           0.
    239,          -9.,   139.169998,           0.
    240,          -3.,   146.169998,           0.
    241,           3.,   146.169998,           0.
    242,           9.,   139.169998,           0.
    243,           9.,   132.169998,           0.
    244,           9.,   125.169998,           0.
    245,          -3.,   146.169998,          25.
    246,           3.,   146.169998,          25.
    247,           9.,   146.169998,        18.75
    248,           9.,   146.169998,         12.5
    249,           9.,   146.169998,         6.25
    250,          -9.,   146.169998,         6.25
    251,          -9.,   146.169998,         12.5
    252,          -9.,   146.169998,        18.75
    253,          -9.,   139.169998,          25.
    254,          -9.,   132.169998,          25.
    255,          -9.,   125.169998,          25.
    256,           9.,   125.169998,          25.
    257,           9.,   132.169998,          25.
    258,           9.,   139.169998,          25.
    259,           9.,   136.660126,   16.9901276
    260,           9.,   138.520004,         12.5
    261,           9.,   136.660126,   8.00987148
    262,           9.,   132.169998,    6.1500001
    263,           9.,   127.679871,   8.00987148
    264,           9.,       125.82,         12.5
    265,           9.,   127.679871,   16.9901276
    266,          -9.,   127.679871,   16.9901276
    267,          -9.,       125.82,         12.5
    268,          -9.,   127.679871,   8.00987148
    269,          -9.,   132.169998,    6.1500001
    270,          -9.,   136.660126,   8.00987148
    271,          -9.,   138.520004,         12.5
    272,          -9.,   136.660126,   16.9901276
    273,   18.7999992,   18.4901276,   16.9901276
    274,   18.7999992,   20.3500004,         12.5
    275,   18.7999992,   18.4901276,   8.00987148
    276,   18.7999992,          14.,    6.1500001
    277,   18.7999992,   9.50987148,   8.00987148
    278,   18.7999992,    7.6500001,         12.5
    279,   18.7999992,   9.50987148,   16.9901276
    280,   18.7999992,          14.,   18.8500004
    281,   23.2999992,   18.4901276,   16.9901276
    282,   23.2999992,   20.3500004,         12.5
    283,   23.2999992,   18.4901276,   8.00987148
    284,   23.2999992,          14.,    6.1500001
    285,   23.2999992,   9.50987148,   8.00987148
    286,   23.2999992,    7.6500001,         12.5
    287,   23.2999992,   9.50987148,   16.9901276
    288,   23.2999992,          14.,   18.8500004
    289,   27.7999992,   18.4901276,   16.9901276
    290,   27.7999992,   20.3500004,         12.5
    291,   27.7999992,   18.4901276,   8.00987148
    292,   27.7999992,          14.,    6.1500001
    293,   27.7999992,   9.50987148,   8.00987148
    294,   27.7999992,    7.6500001,         12.5
    295,   27.7999992,   9.50987148,   16.9901276
    296,   27.7999992,          14.,   18.8500004
    297,  -27.7999992,   18.4901276,   16.9901276
    298,  -27.7999992,   20.3500004,         12.5
    299,  -27.7999992,   18.4901276,   8.00987148
    300,  -27.7999992,          14.,    6.1500001
    301,  -27.7999992,   9.50987148,   8.00987148
    302,  -27.7999992,    7.6500001,         12.5
    303,  -27.7999992,   9.50987148,   16.9901276
    304,  -27.7999992,          14.,   18.8500004
    305,  -23.2999992,   18.4901276,   16.9901276
    306,  -23.2999992,   20.3500004,         12.5
    307,  -23.2999992,   18.4901276,   8.00987148
    308,  -23.2999992,          14.,    6.1500001
    309,  -23.2999992,   9.50987148,   8.00987148
    310,  -23.2999992,    7.6500001,         12.5
    311,  -23.2999992,   9.50987148,   16.9901276
    312,  -23.2999992,          14.,   18.8500004
    313,  -18.7999992,   18.4901276,   16.9901276
    314,  -18.7999992,   20.3500004,         12.5
    315,  -18.7999992,   18.4901276,   8.00987148
    316,  -18.7999992,          14.,    6.1500001
    317,  -18.7999992,   9.50987148,   8.00987148
    318,  -18.7999992,    7.6500001,         12.5
    319,  -18.7999992,   9.50987148,   16.9901276
    320,  -18.7999992,          14.,   18.8500004
    321,   7.37720108,    99.614296,        18.75
    322,   9.90385342,   93.1150589,        18.75
    323,   12.7251291,   86.7388458,        18.75
    324,   15.9245405,   80.5435867,        18.75
    325,   19.3221455,   74.4538803,        18.75
    326,   22.6663532,   68.3349304,        18.75
    327,    25.695507,   62.0554657,        18.75
    328,    28.117857,   55.5203438,        18.75
    329,   29.8121796,   48.7587166,        18.75
    330,   30.9450855,   41.8792534,        18.75
    331,    31.712019,   34.9485626,        18.75
    332,   7.37720108,    99.614296,         12.5
    333,   9.90385342,   93.1150589,         12.5
    334,   12.7251291,   86.7388458,         12.5
    335,   15.9245405,   80.5435867,         12.5
    336,   19.3221455,   74.4538803,         12.5
    337,   22.6663532,   68.3349304,         12.5
    338,    25.695507,   62.0554657,         12.5
    339,    28.117857,   55.5203438,         12.5
    340,   29.8121796,   48.7587166,         12.5
    341,   30.9450855,   41.8792534,         12.5
    342,    31.712019,   34.9485626,         12.5
    343,   7.37720108,    99.614296,         6.25
    344,   9.90385342,   93.1150589,         6.25
    345,   12.7251291,   86.7388458,         6.25
    346,   15.9245405,   80.5435867,         6.25
    347,   19.3221455,   74.4538803,         6.25
    348,   22.6663532,   68.3349304,         6.25
    349,    25.695507,   62.0554657,         6.25
    350,    28.117857,   55.5203438,         6.25
    351,   29.8121796,   48.7587166,         6.25
    352,   30.9450855,   41.8792534,         6.25
    353,    31.712019,   34.9485588,         6.25
    354,   32.2999992,   4.83197451,   7.85197449
    355,   32.2999992,   4.83197451,   17.1480255
    356,   32.2999992,    23.168026,   7.85197449
    357,   32.2999992,    23.168026,   17.1480255
    358,   26.2999992,           0.,        18.75
    359,   20.2999992,           0.,        18.75
    360,   26.2999992,           0.,         12.5
    361,   20.2999992,           0.,         12.5
    362,   26.2999992,           0.,         6.25
    363,   20.2999992,           0.,         6.25
    364,   14.3000002,    23.168026,   7.85197449
    365,   14.3000002,    23.168026,   17.1480255
    366,   14.3000002,   4.83197451,   7.85197449
    367,   14.3000002,   4.83197451,   17.1480255
    368,   16.4958019,    34.958828,        18.75
    369,   18.1804276,   42.0563393,        18.75
    370,   19.1123486,   49.2906723,        18.75
    371,   19.3199673,   56.5828514,        18.75
    372,   18.9374542,   63.8686066,        18.75
    373,   17.8895893,     71.08638,        18.75
    374,   16.5595989,   75.4919891,        18.75
    375,   15.3512239,   77.4036789,        18.75
    376,   13.9619312,   77.9974442,        18.75
    377,   12.5718689,    77.343132,        18.75
    378,   10.5105085,   74.9832382,        18.75
    379,   7.26831341,   69.4836807,        18.75
    380,   16.4958019,   34.9588318,         12.5
    381,   18.1804276,   42.0563393,         12.5
    382,   19.1123486,   49.2906723,         12.5
    383,   19.3199673,   56.5828514,         12.5
    384,   18.9374542,   63.8686066,         12.5
    385,   17.8895893,     71.08638,         12.5
    386,   16.5595989,   75.4919891,         12.5
    387,   15.3512239,   77.4036789,         12.5
    388,   13.9619322,   77.9974442,         12.5
    389,   12.5718689,    77.343132,         12.5
    390,   10.5105085,   74.9832382,         12.5
    391,   7.26831341,   69.4836807,         12.5
    392,   16.4958019,   34.9588318,         6.25
    393,   18.1804276,   42.0563431,         6.25
    394,   19.1123486,   49.2906761,         6.25
    395,   19.3199673,   56.5828514,         6.25
    396,   18.9374542,   63.8686066,         6.25
    397,   17.8895893,     71.08638,         6.25
    398,   16.5595989,   75.4919891,         6.25
    399,   15.3512239,   77.4036789,         6.25
    400,   13.9619322,   77.9974442,         6.25
    401,   12.5718689,    77.343132,         6.25
    402,   10.5105085,   74.9832382,         6.25
    403,   7.26831341,   69.4836807,         6.25
    404,  -7.26831341,   69.4836807,        18.75
    405,  -10.5105076,   74.9832382,        18.75
    406,  -12.5718689,    77.343132,        18.75
    407,  -13.9619331,   77.9974442,        18.75
    408,  -15.3512249,   77.4036789,        18.75
    409,  -16.5595989,   75.4919891,        18.75
    410,  -17.8895912,   71.0863724,        18.75
    411,  -18.9374561,   63.8686028,        18.75
    412,  -19.3199673,   56.5828514,        18.75
    413,  -19.1123486,   49.2906723,        18.75
    414,  -18.1804276,   42.0563393,        18.75
    415,  -16.4958019,    34.958828,        18.75
    416,  -7.26831675,   69.4836884,         12.5
    417,  -10.5105114,   74.9832458,         12.5
    418,  -12.5718708,    77.343132,         12.5
    419,  -13.9619341,   77.9974442,         12.5
    420,  -15.3512259,   77.4036789,         12.5
    421,  -16.5596008,   75.4919815,         12.5
    422,  -17.8895912,   71.0863724,         12.5
    423,  -18.9374561,   63.8685989,         12.5
    424,  -19.3199673,   56.5828514,         12.5
    425,  -19.1123486,   49.2906723,         12.5
    426,  -18.1804276,   42.0563393,         12.5
    427,  -16.4958019,    34.958828,         12.5
    428,  -7.26831675,   69.4836884,         6.25
    429,  -10.5105124,   74.9832458,         6.25
    430,  -12.5718708,    77.343132,         6.25
    431,   -13.961935,   77.9974442,         6.25
    432,  -15.3512259,   77.4036789,         6.25
    433,  -16.5596008,   75.4919815,         6.25
    434,  -17.8895912,   71.0863724,         6.25
    435,  -18.9374561,   63.8685989,         6.25
    436,  -19.3199673,   56.5828514,         6.25
    437,  -19.1123486,   49.2906723,         6.25
    438,  -18.1804276,   42.0563393,         6.25
    439,  -16.4958019,    34.958828,         6.25
    440,  -14.3000002,   4.83197451,   7.85197449
    441,  -14.3000002,   4.83197451,   17.1480255
    442,  -14.3000002,    23.168026,   7.85197449
    443,  -14.3000002,    23.168026,   17.1480255
    444,  -20.2999992,           0.,        18.75
    445,  -26.2999992,           0.,        18.75
    446,  -20.2999992,           0.,         12.5
    447,  -26.2999992,           0.,         12.5
    448,  -20.2999992,           0.,         6.25
    449,  -26.2999992,           0.,         6.25
    450,  -32.2999992,    23.168026,   7.85197449
    451,  -32.2999992,    23.168026,   17.1480255
    452,  -32.2999992,   4.83197451,   7.85197449
    453,  -32.2999992,   4.83197451,   17.1480255
    454,   -31.712019,   34.9485588,        18.75
    455,  -30.9450855,   41.8792534,        18.75
    456,  -29.8121796,   48.7587166,        18.75
    457,   -28.117857,   55.5203438,        18.75
    458,   -25.695507,   62.0554619,        18.75
    459,  -22.6663532,   68.3349304,        18.75
    460,  -19.3221474,   74.4538803,        18.75
    461,  -15.9245415,   80.5435867,        18.75
    462,  -12.7251301,   86.7388458,        18.75
    463,  -9.90385342,   93.1150589,        18.75
    464,  -7.37720156,    99.614296,        18.75
    465,   -31.712019,   34.9485588,         12.5
    466,  -30.9450855,   41.8792534,         12.5
    467,  -29.8121796,   48.7587166,         12.5
    468,   -28.117857,   55.5203438,         12.5
    469,   -25.695507,   62.0554619,         12.5
    470,  -22.6663532,   68.3349304,         12.5
    471,  -19.3221474,   74.4538803,         12.5
    472,  -15.9245415,   80.5435867,         12.5
    473,  -12.7251301,   86.7388458,         12.5
    474,  -9.90385342,   93.1150589,         12.5
    475,  -7.37720156,    99.614296,         12.5
    476,   -31.712019,   34.9485588,         6.25
    477,  -30.9450855,   41.8792534,         6.25
    478,  -29.8121796,   48.7587166,         6.25
    479,   -28.117857,   55.5203438,         6.25
    480,   -25.695507,   62.0554619,         6.25
    481,  -22.6663532,   68.3349304,         6.25
    482,  -19.3221474,   74.4538803,         6.25
    483,  -15.9245415,   80.5435867,         6.25
    484,  -12.7251301,   86.7388458,         6.25
    485,  -9.90385342,   93.1150589,         6.25
    486,  -7.37720156,    99.614296,         6.25
    487,   6.99999952,   112.169998,        18.75
    488,   6.99999952,   112.169998,         12.5
    489,   6.99999952,   112.169998,         6.25
    490,  -6.99999952,   112.169998,        18.75
    491,  -6.99999952,   112.169998,         12.5
    492,  -6.99999952,   112.169998,         6.25
    493,  -9.29740047,    78.193924,           0.
    494,   9.40245724,   78.1765976,           0.
    495,  -12.2633486,   80.4567108,           0.
    496,   12.2836294,    80.440094,           0.
    497,  -5.97904015,   74.8927078,           0.
    498,   6.37361097,   74.8346481,           0.
    499,   9.14308739,   81.7982635,           0.
    500,  -8.92308617,   81.8298874,           0.
    501,  -5.24125051,   79.4737778,           0.
    502,   5.45582914,   79.3181763,           0.
    503,   1.97229207,   75.5675888,           0.
    504,  0.166797623,   81.0621262,           0.
    505,   3.63791966,   70.6920471,           0.
    506,  -2.10116363,   76.3141022,           0.
    507,   5.76554346,   84.3562775,           0.
    508,  -5.36171484,   84.3937531,           0.
    509,  -1.39118707,   70.4214478,           0.
    510, -0.240257487,   139.968033,           0.
    511,   23.4816456,   6.27810669,           0.
    512,  -23.0620823,   6.20197248,           0.
    513,   2.33056641,   117.003021,           0.
    514,  -3.25565338,   116.216263,           0.
    515, -0.154181138,   111.649879,           0.
    516,   -24.482851,   45.2303848,           0.
    517,   24.4867344,   45.2302513,           0.
    518,  -24.2582073,   38.2560005,           0.
    519,   24.2591076,     38.25597,           0.
    520,  -3.15791512,   93.9721451,           0.
    521,   3.55770612,   93.9735641,           0.
    522,   23.7842712,   30.2121067,           0.
    523,  -23.8515835,   30.2365856,           0.
    524, 0.0666317567,   99.9190521,           0.
    525,   -3.1578629,   129.335434,           0.
    526,   25.5418243,   17.6965599,           0.
    527,  -20.1306648,   16.6973019,           0.
    528,    2.2809639,   133.849442,           0.
    529,   3.14527154,   127.438026,           0.
    530,   20.5968685,    12.374608,           0.
    531,   19.0550442,    17.664114,           0.
    532,  -25.5838909,   12.2976799,           0.
    533,  -26.3682671,   18.5812836,           0.
    534,  -21.0032368,   23.1336823,           0.
    535,   20.6445961,     23.10746,           0.
    536,   26.9141388,   24.0032253,           0.
    537,  -27.1646175,   24.1903095,           0.
    538,  -2.11666584,   122.185066,           0.
    539,   4.27183437,   121.993225,           0.
    540,  -24.1690407,   51.0765915,           0.
    541,  0.209439769,   88.0264587,           0.
    542,   6.43233442,   89.2420425,           0.
    543,  -3.82343125,   134.898575,           0.
    544,   26.8440666,   11.4698553,           0.
    545,  -19.4753265,   11.2393913,           0.
    546,    24.169817,   51.0765686,           0.
    547,  -6.18783474,   89.2492523,           0.
    548,          -3.,   146.169998,        18.75
    549,           3.,   146.169998,        18.75
    550,          -3.,   146.169998,         12.5
    551,           3.,   146.169998,         12.5
    552,          -3.,   146.169998,         6.25
    553,           3.,   146.169998,         6.25
    554,   9.39353371,   78.1581192,          25.
    555,  -9.36016083,   78.1673279,          25.
    556,  -12.2780199,   80.4330902,          25.
    557,   12.2695866,   80.4269028,          25.
    558,   6.33998346,   74.8177643,          25.
    559,  -6.03346682,   74.9295654,          25.
    560,   9.11410332,   81.8262939,          25.
    561,  -9.05491352,   81.8375015,          25.
    562,  -5.39973354,   79.5555267,          25.
    563,   5.36655807,   79.4086533,          25.
    564,  -2.26570463,   76.4986191,          25.
    565,    1.8847177,   75.5966187,          25.
    566, -0.0686086193,   81.1371536,          25.
    567,  -1.44787824,   70.4812546,          25.
    568,   5.56735182,   84.4168472,          25.
    569,   -5.6135416,    84.443718,          25.
    570,   3.60902739,   70.6758652,          25.
    571, -0.262892932,   139.986313,          25.
    572,  -23.4359055,   6.27909279,          25.
    573,   23.0636139,   6.23533869,          25.
    574,   -3.2414577,   116.161674,          25.
    575,    2.4090457,   117.022423,          25.
    576, -0.138735324,   111.644012,          25.
    577,    24.482851,   45.2303848,          25.
    578,   -24.482851,   45.2303848,          25.
    579,   24.2582073,   38.2560005,          25.
    580,  -24.2582073,   38.2560005,          25.
    581,   3.32772756,    94.046402,          25.
    582,  -3.40246677,   94.0257492,          25.
    583,  -23.7814846,   30.2019329,          25.
    584,   23.8572063,   30.2214317,          25.
    585, -0.0124565056,   99.9401245,          25.
    586,  -3.17471957,   129.355331,          25.
    587,  -25.4871063,   17.6363258,          25.
    588,  -19.0383492,   17.6225681,          25.
    589,  -20.5655708,   12.3210096,          25.
    590,   20.1513348,   16.6791019,          25.
    591,   26.3901119,   18.5539646,          25.
    592,   25.6219711,   12.2703972,          25.
    593,   2.26243544,   133.865463,          25.
    594,    3.1554687,   127.437035,          25.
    595,    21.015089,   23.1132565,          25.
    596,  -20.6316719,   23.0868244,          25.
    597,   -26.900053,   23.9850178,          25.
    598,   27.1724815,   24.1777306,          25.
    599,  -2.09930825,   122.178413,          25.
    600,   4.29304123,   121.995575,          25.
    601,  -24.1690407,   51.0765953,          25.
    602,   24.1690407,   51.0765953,          25.
    603,  -3.83503532,   134.909424,          25.
    604, -0.0354069993,   88.0968475,          25.
    605,   -6.3360796,   89.2840424,          25.
    606,  -26.8177166,   11.4472857,          25.
    607,   19.4873848,   11.2369671,          25.
    608,   6.29773092,   89.2827988,          25.
    609,           9.,   123.001976,   7.85197449
    610,           9.,   123.001976,   17.1480255
    611,           9.,   141.338028,   7.85197449
    612,           9.,   141.338028,   17.1480255
    613,          -9.,   141.338028,   7.85197449
    614,          -9.,   141.338028,   17.1480255
    615,          -9.,   123.001976,   7.85197449
    616,          -9.,   123.001976,   17.1480255
    617,         -4.5,   136.660126,   16.9901276
    618,         -4.5,   138.520004,         12.5
    619,         -4.5,   136.660126,   8.00987148
    620,         -4.5,   132.169998,    6.1500001
    621,         -4.5,   127.679871,   8.00987148
    622,         -4.5,       125.82,         12.5
    623,         -4.5,   127.679871,   16.9901276
    624,         -4.5,   132.169998,   18.8500004
    625,           0.,   136.660126,   16.9901276
    626,           0.,   138.520004,         12.5
    627,           0.,   136.660126,   8.00987148
    628,           0.,   132.169998,    6.1500001
    629,           0.,   127.679871,   8.00987148
    630,           0.,       125.82,         12.5
    631,           0.,   127.679871,   16.9901276
    632,           0.,   132.169998,   18.8500004
    633,          4.5,   136.660126,   16.9901276
    634,          4.5,   138.520004,         12.5
    635,          4.5,   136.660126,   8.00987148
    636,          4.5,   132.169998,    6.1500001
    637,          4.5,   127.679871,   8.00987148
    638,          4.5,       125.82,         12.5
    639,          4.5,   127.679871,   16.9901276
    640,          4.5,   132.169998,   18.8500004
    641,   5.39685917,   121.807114,   11.4923668
    642,   2.84637308,   117.219147,   16.0155144
    643,  0.983823657,   116.933548,   10.7067509
    644,   3.86112857,   122.360245,   16.1478252
    645,   2.16291356,   121.602341,         12.5
    646,  -4.36067152,   117.164108,   16.7827034
    647,  -2.16290426,   121.602341,         12.5
    648,   -1.6257602,   118.897049,   20.9495068
    649,   4.05313873,   117.304932,   22.2028179
    650,  -10.5101337,   80.4400482,    15.867774
    651,  -10.9076958,   80.7116852,   9.70977402
    652,  -6.49560404,   88.4022369,   17.4250202
    653,  -7.40272713,   80.8276062,   12.3582726
    654,   16.7781525,   5.51994848,   15.7382002
    655,  -4.71498108,    75.900444,   3.88529015
    656,   1.77510047,   77.9613113,   8.59401894
    657,  -2.56066084,   80.4024048,   9.36813641
    658,  -3.08024859,   73.8688202,   8.30817699
    659,    1.5758568,   75.6883926,   3.26004052
    660,   1.16665792,   68.5929871,   8.07291412
    661,   5.45578146,   82.3374405,   3.36360288
    662,   0.26736027,   86.0056458,   6.52188396
    663,   6.35567093,    79.753746,   10.0607071
    664,   7.02989912,   77.9682465,   3.89260697
    665,   1.62736046,   78.4476166,   15.2866182
    666,    5.9056983,    81.953949,   14.7927275
    667,  0.231211498,   84.6906967,   11.3355532
    668,   -5.9907794,   136.076187,   4.25331736
    669,   5.01533604,   75.0376434,   12.8457813
    670,  -2.87345695,   82.0983963,   16.3226109
    671,  -25.4457531,   5.43786478,   15.8698826
    672,  -23.3154831,   4.53460789,   10.0647316
    673, -0.0186016299,   80.9839859,    20.155695
    674,   6.85450172,   81.2942657,   20.8409309
    675,   1.64787686,   76.2344208,   21.5429459
    676,   5.50258589,   75.4896317,   16.7014713
    677,  -1.48098016,   75.4369965,   17.0516186
    678,  0.183870316,   104.419334,   20.4594631
    679,    1.4493916,   99.6919708,   16.9087811
    680,  -1.82673371,   114.073074,   4.53142643
    681,   1.76033759,    111.68045,   10.2864618
    682,   3.57660031,   115.772659,   7.37478399
    683,   2.06850863,   108.732971,   4.48828459
    684,  -5.56117487,   121.222557,   18.9494286
    685,  -1.44462788,   123.185081,   15.4721909
    686,  -6.16724968,   122.205917,    12.112668
    687,   1.66454518,   126.929474,   20.9780693
    688,   26.5733948,   36.9091568,   8.10527039
    689,   19.3418655,   30.2235889,   4.26031065
    690,    26.900713,   30.1295624,   8.27746677
    691,   27.3445244,   5.00640106,   21.3850861
    692,   25.6327686,   16.3464298,   3.58110595
    693,  -6.91271162,   77.0315781,   8.28802109
    694,   6.01617956,   75.4574966,   8.04547882
    695,  -1.37383807,   68.8532333,   11.3001719
    696,  -5.12049866,   75.3199539,   13.6482687
    697, -0.0241423436,   88.9004364,   16.8983288
    698,  -2.97729683,   85.1678848,   21.1447544
    699,   3.18138742,   89.7209778,   20.9544277
    700,   -2.0990057,   92.1074448,   21.0310898
    701,   4.26868105,   93.4318314,   12.6302118
    702,   6.37792635,   88.9532013,   16.7825012
    703,  -3.49817944,   93.3756485,    12.606698
    704,   23.6473427,   47.2928467,   20.7653942
    705,   23.9526463,    53.597168,    15.318512
    706,   23.8761311,   55.2184334,   21.0412273
    707,   24.0195045,   45.4208984,   15.6125307
    708,   11.1873035,   83.1385574,   3.16697693
    709,  -23.2211246,   47.6607323,   20.5877781
    710,  -23.3174057,   54.0949631,   22.0906887
    711,  -23.6636505,   53.9084282,   15.7505026
    712,  -24.6860466,   45.5449409,   16.1395931
    713,   24.1808605,   41.6827736,   4.86521053
    714,   22.7177982,   39.6729851,   10.4042692
    715,   23.2217522,    47.660717,    4.4034996
    716,   25.1859779,   45.6379738,   10.2848988
    717,   1.41181839,   119.685272,     4.267766
    718,  -3.91856146,   116.335571,   8.41131401
    719,   1.43024421,   123.220894,   9.41315651
    720,   1.00591254,   111.890259,   16.1458263
    721,  -7.38762188,   86.6556778,   8.32084942
    722, -0.779880941,   81.2186584,   4.64550591
    723,   7.50023985,   86.4445419,   8.31615067
    724,  -23.8789158,   46.7017822,   4.33819485
    725,  -23.3147335,   54.5916595,   4.16166925
    726,  -23.8638935,   53.9213524,   10.0450659
    727,   6.19215059,    125.12159,   20.3860188
    728,  -24.0242405,   46.1598473,   10.4146099
    729,  -22.7177887,   39.6729851,   8.34573174
    730,  -19.5386028,   28.4550915,   3.32964635
    731,  -24.0565224,   41.9564705,   20.3709965
    732,  -27.2283268,   37.3037224,   16.6790676
    733,  -22.0965347,   32.6457596,   18.7233963
    734,  -22.7464161,   39.4894676,   14.5192251
    735,  -24.1351929,    27.534853,   13.6307125
    736,  -28.0061646,   23.7155991,   9.56987762
    737,  -26.7303104,   23.3753757,   15.3421917
    738,  -26.9248734,   30.3455677,   10.5116701
    739,  -27.1690998,   30.0918598,   18.7673702
    740,  -19.4611149,   28.7046089,   14.2017298
    741,  -21.0033035,   24.3111458,   10.3756676
    742,   -25.631279,   26.9629936,   20.3353462
    743,  -21.7648506,   22.9470215,   15.3341446
    744,   3.27484894,   83.5032654,    21.171505
    745,  -7.21132755,   81.3569412,   20.9214783
    746,  -6.85272551,   77.0422363,   16.8528366
    747,    10.765728,   80.4689484,   9.20813084
    748,   11.1704311,   80.3528214,   16.1861191
    749,   23.4036064,   53.3123283,   9.10518837
    750,   23.2303925,   55.3725395,   3.24358487
    751,  -3.00330758,   85.8990326,   3.79392862
    752,  -27.6970215,    4.4184289,   6.61733389
    753,   19.1101723,   20.1067619,   20.4243126
    754,  -8.67405701,    78.636795,   2.56461143
    755,  -27.2283268,   37.3037224,    10.429059
    756,   28.6384258,    18.127718,   20.7788448
    757,   27.4772434,    24.293211,   17.4010429
    758,    23.495182,   19.1111164,    20.879261
    759,  -7.94962072,   82.8279037,    3.8799808
    760,   16.8254566,   3.37897611,   3.99742723
    761,   21.0090923,   7.98491907,   4.23030376
    762,   17.3354607,   11.1887188,   3.58849669
    763,   22.0834923,   4.23188543,   9.96559048
    764,  -28.1169415,   22.0875816,   20.4937992
    765,  -19.0452747,   23.8241196,   20.4683971
    766,   -19.399271,   28.9324532,   21.3153782
    767,   19.2515125,   23.7796173,   5.60884094
    768,   26.7153072,   28.1351376,   4.92052507
    769,   18.4591618,   27.6059208,   8.74017715
    770,  -4.71931934,   75.4120789,   21.8027763
    771,  0.731096745,   68.6005173,   17.3990822
    772,   27.2283268,   37.3037224,   14.5709324
    773,    24.134222,   34.9536743,        18.75
    774,   27.1371593,   30.2732792,   14.5417204
    775,   21.8690968,   32.5928955,         12.5
    776,   22.7177982,   39.6729851,   16.6542778
    777,   2.34654331,   67.4891281,   2.92090058
    778,   27.9124908,   24.9723969,   9.62881851
    779,   28.5632973,   24.1157417,   4.37717438
    780,    21.237751,   24.7777328,   10.6057138
    781,   25.0448055,    21.151701,    4.1429286
    782,   29.6992092,   21.5145016,   9.11133099
    783,   25.0173321,   10.4596109,   4.12857294
    784,   28.2041779,    4.4972105,   4.27730274
    785, -0.112923272,   96.7876205,   9.87820625
    786,  -2.23613596,   100.372139,   14.7395773
    787, -0.397192419,    102.32029,    10.404315
    788,   -5.6296339,   93.5192108,   7.48790121
    789,   0.90233165,   93.5118484,   3.97472787
    790,   2.33183599,   136.898529,   4.60698891
    791,   3.82677436,   141.805954,    9.9412632
    792,  -1.36346889,   141.266846,   9.32530975
    793,   5.32139826,   141.636169,   4.46594572
    794,  -18.3399391,   19.5354481,   20.3213062
    795,  -23.1099491,   18.3087864,    20.810997
    796,  -19.1781406,   4.75458097,   21.0884953
    797,   11.6252689,   80.4612122,    3.3577106
    798,   11.3334894,   82.8212662,   22.0570755
    799,   11.5322523,   80.7119598,   21.2891083
    800,  -2.50439358,    112.19088,   22.1129818
    801,   3.08811092,   111.971786,   22.0050354
    802,           0.,   106.169998,       15.625
    803,  -29.0632935,   17.1826801,    21.966074
    804,  -29.5467873,   9.77823257,   20.6200237
    805,  -11.7224398,   80.7641907,   21.5487175
    806,    -11.27145,   82.8475494,   21.9894218
    807,   19.6506462,   29.0018368,   16.6179256
    808,   17.0536346,   18.1880016,   4.06943798
    809,   21.2149048,   18.0843925,   4.07545042
    810,  -29.1213837,   7.23696899,    4.3309617
    811,  -29.4881802,   5.38156033,   15.4043331
    812,   22.4397449,   10.0627975,   20.8544159
    813,   17.4899349,   9.99894524,   20.6409454
    814,   19.0458679,   4.68833303,   20.0332623
    815,   -11.032774,   82.7073059,   3.94746828
    816,  0.762750089,   128.288101,   4.38359356
    817,   5.83460331,   123.773857,   4.21144295
    818,   4.67758369,   128.681122,    3.9839685
    819,   -16.950016,   4.31936216,   14.6538858
    820,   28.4313927,   4.61667347,   9.84743118
    821,    24.583992,   5.54012299,   16.7547684
    822,  -5.82978392,   129.031158,   3.27325869
    823,  -0.87556231,    125.17807,   4.26887608
    824,  -4.64036179,   121.622765,   4.06956768
    825,  -4.29351711,    123.14312,   7.17031384
    826,   18.5315895,   23.8540707,   14.9317169
    827,   19.3834343,   27.3050556,   21.0658512
    828,  -4.25722933,   128.203781,    20.976368
    829,   22.6324215,   22.7807064,   16.5043545
    830,  -4.90189457,   141.684921,   4.25018167
    831,   -12.094306,   80.6683578,   3.58685017
    832,  -5.69072962,   142.074173,   13.2750893
    833,  -18.1865845,    17.323288,   4.06005859
    834,  -19.5890141,   23.9888783,   4.89299726
    835,  -22.9493141,   17.8285294,    3.9915905
    836,  -28.1720982,   21.8578033,   4.65401554
    837,  -28.4956703,   17.6915665,   3.70352888
    838,   23.6497478,   26.5460072,   20.3458729
    839,  -27.4803791,    4.4972291,   20.0453243
    840,   4.14756203,   88.5581512,   4.09681797
    841,   7.58996439,    77.725563,   21.0358639
    842,  -22.5213013,   10.5156746,   4.02089453
    843,   4.92231846,    141.60907,   20.8006001
    844,   4.60008764,   136.185669,   20.4863796
    845,    5.1958766,    141.50975,   15.1744356
    846,  -1.21651518,    141.93811,   15.0344095
    847,   20.5813026,   5.65976143,   16.3853073
    848,   -24.134222,   34.9536743,   6.25000048
    849,  -24.0463848,   26.2493801,   4.80540037
    850,   -19.848032,   29.1685677,   8.37369442
    851,  -5.44535637,   142.103348,   20.4655304
    852, -0.219121829,   135.348312,   20.8950615
    853,   -18.738121,   4.14069939,   4.07969618
*Element, type=C3D4
   1, 641, 642, 643, 230
   2, 642, 644, 641, 645
   3, 642, 643, 646, 647
   4, 642, 648, 649, 644
   5, 642, 645, 643, 647
   6, 418, 650, 417, 651
   7, 650, 652, 653, 473
   8, 651, 650, 473, 472
   9, 367,  39, 654,  40
  10, 655, 656, 657, 658
  11, 656, 659, 658, 655
  12, 656, 658, 659, 660
  13, 656, 661, 662, 663
  14, 656, 661, 663, 664
  15,  39, 654,  40, 279
  16, 656, 665, 666, 667
  17, 619, 668, 627, 628
  18, 656, 665, 667, 657
  19, 669, 665, 666, 656
  20, 665, 670, 667, 657
  21, 302, 671, 447, 672
  22, 673, 674, 675, 665
  23, 665, 676, 677, 669
  24, 665, 677, 675, 673
  25, 665, 677, 673, 670
  26, 665, 666, 674, 676
  27,  94, 321, 678, 679
  28, 515, 680, 492, 215
  29, 681, 680, 682, 683
  30, 680, 681, 215, 683
  31, 682, 683, 489, 681
  32, 680, 513, 682, 515
  33, 514, 680, 492, 515
  34, 684, 685, 686, 622
  35, 684, 686, 616, 622
  36, 684, 623, 687, 685
  37, 646, 685, 686, 684
  38, 522, 688, 689, 690
  39, 691,  97, 573, 104
  40, 646, 686, 234, 684
  41, 544, 530, 284, 692
  42, 658, 657, 655, 693
  43, 660, 656, 669, 694
  44, 658, 655, 428, 693
  45, 658, 416, 695, 696
  46, 658, 695, 416, 428
  47, 318, 440, 446, 448
  48, 697, 670, 673, 698
  49, 697, 667, 666, 670
  50, 604, 699, 698, 700
  51, 699, 698, 700, 697
  52, 697, 667, 701, 702
  53, 697, 703, 700, 701
  54, 704, 328, 705, 706
  55, 330, 707, 704, 329
  56, 329, 330, 577, 704
  57, 399, 388, 387, 346
  58, 329, 577, 602, 704
  59, 704, 122, 577, 602
  60, 704, 329, 705, 328
  61, 704, 705, 370, 706
  62, 704, 705, 707, 370
  63, 397, 347, 386, 385
  64, 204, 578, 456, 601
  65, 708, 499, 661, 507
  66, 601, 709, 710, 159
  67, 709, 457, 711, 456
  68, 709, 711, 710, 413
  69, 709, 711, 413, 712
  70, 713, 517,  82, 519
  71, 688, 352,  82, 713
  72, 713, 714, 392, 688
  73, 713, 715, 393, 716
  74, 713, 517, 519, 145
  75, 393, 145, 715, 713
  76, 713, 392, 714, 393
  77, 643, 717, 718, 719
  78, 680, 717, 643, 682
  79, 642, 685, 647, 646
  80, 643, 681, 720, 491
  81, 643, 718, 647, 719
  82, 657, 721, 653, 670
  83, 657, 656, 722, 662
  84, 663, 661, 662, 723
  85, 697, 667, 702, 666
  86, 667, 723, 701, 702
  87, 666, 670, 673, 697
  88, 656, 696, 658, 695
  89, 653, 657, 693, 721
  90, 693, 721, 651, 653
  91, 722, 655, 656, 657
  92, 667, 657, 721, 662
  93, 724, 725, 479, 726
  94, 724, 167, 516, 540
  95, 727, 639, 265, 610
  96, 724, 477, 728, 478
  97, 687, 632, 586, 594
  98, 724, 477, 729, 728
  99, 702, 568, 674, 323
 100, 224, 540, 478, 516
 101, 730, 165, 439, 164
 102, 724, 725, 726, 437
 103, 724, 726, 479, 478
 104, 724, 728, 437, 726
 105, 580, 731, 455, 578
 106, 455, 578, 203, 580
 107, 731, 455, 732, 580
 108, 709, 731, 456, 712
 109, 709, 414, 712, 413
 110, 731, 160, 580, 414
 111, 731, 580, 160, 578
 112, 731, 733, 732, 734
 113, 663, 694, 402, 390
 114, 414, 733, 580, 731
 115, 735, 197, 736, 737
 116, 735, 733, 738, 739
 117, 740, 738, 741, 735
 118, 687, 640, 639, 631
 119, 398, 346, 386, 347
 120, 735, 742, 740, 733
 121, 735, 743, 737, 306
 122, 735, 737, 742, 739
 123, 697, 670, 698, 652
 124, 667, 703, 701, 662
 125, 727, 256, 610, 265
 126, 673, 697, 744, 666
 127, 665, 666, 667, 670
 128, 652, 745, 650, 670
 129, 652, 667, 670, 721
 130, 721, 667, 670, 657
 131, 670, 721, 653, 652
 132, 697, 667, 703, 701
 133, 677, 670, 696, 746
 134, 666, 390, 747, 748
 135, 644, 638, 639, 610
 136, 387, 386, 335, 375
 137, 667, 666, 663, 723
 138, 386, 385, 347, 336
 139, 666, 748, 334, 323
 140, 669, 666, 390, 663
 141, 666, 748, 323, 674
 142, 713, 716, 352, 351
 143, 388, 387, 346, 335
 144,  83, 517, 351, 546
 145, 653, 417, 693, 696
 146, 715, 144, 546, 517
 147, 715, 749, 351, 350
 148, 715, 749, 750, 394
 149, 715, 749, 394, 716
 150, 664, 661, 659, 656
 151, 662, 656, 722, 661
 152, 666, 748, 676, 390
 153, 390, 666, 747, 663
 154, 387, 335, 386, 346
 155, 663, 747, 390, 402
 156, 652, 462, 650, 745
 157, 657, 662, 722, 751
 158, 653, 651, 650, 473
 159, 650, 417, 651, 653
 160, 752, 672, 449, 448
 161, 480, 725, 222, 436
 162, 725, 167, 540, 168
 163, 437, 167, 724, 725
 164, 397, 347, 385, 348
 165, 222, 436, 169, 480
 166, 724, 479, 725, 540
 167, 725, 222, 223, 479
 168, 725, 540, 479, 223
 169, 327, 706,  73, 371
 170, 123, 602, 370, 706
 171, 385, 337, 384, 348
 172, 644, 631, 685, 687
 173, 704, 602, 706, 370
 174, 123, 371, 124,  73
 175, 706, 705, 327, 328
 176, 719, 629, 630, 638
 177, 706,  73, 123,  74
 178, 706,  74, 602, 328
 179, 655, 693, 429, 428
 180, 693, 696, 416, 658
 181, 658, 657, 693, 696
 182, 753, 280,   1, 273
 183, 655, 754, 501, 497
 184, 509, 655, 658, 659
 185, 656, 655, 722, 659
 186, 644, 727, 600, 231
 187, 648, 644, 685, 687
 188, 642, 648, 644, 685
 189, 732, 755, 465, 466
 190, 732, 466, 712, 734
 191, 731, 712, 732, 455
 192, 731, 580, 732, 733
 193, 756, 757, 598,  95
 194, 756, 357, 757,  95
 195,  46, 357, 289, 756
 196, 756, 592,  96, 591
 197, 756,   2, 592, 296
 198, 385, 384, 337, 373
 199, 591, 756, 592, 758
 200, 641, 230, 682, 229
 201, 719, 682, 229, 641
 202, 641, 637, 719, 638
 203, 641, 719, 637, 609
 204, 642, 644, 231, 230
 205, 644, 641, 645, 638
 206, 644, 600, 727, 687
 207, 641, 638, 610, 264
 208, 708,  88,  89, 346
 209, 656, 663, 694, 664
 210, 722, 501, 759, 508
 211, 722, 659, 506, 504
 212, 639, 610, 638, 265
 213, 722, 759, 751, 508
 214, 657, 759, 721, 751
 215, 751, 722, 504, 662
 216, 502, 661, 504, 659
 217, 661, 504, 659, 722
 218, 661, 662, 541, 504
 219, 760, 761, 119, 762
 220, 760, 763, 363, 761
 221, 760, 761, 363, 511
 222, 760, 119, 761, 511
 223, 760, 119, 108, 366
 224, 760, 119, 109,  12
 225, 760, 119,  12, 108
 226, 737, 196, 739, 197
 227, 737, 764, 742, 196
 228, 676, 390, 379, 391
 229, 765, 740, 742, 766
 230, 766, 742, 596, 583
 231, 766, 161, 733, 583
 232, 766, 765, 596, 742
 233, 766, 740, 733, 415
 234, 766, 733, 161, 415
 235, 689, 767, 768, 769
 236, 230, 644, 231, 610
 237, 689, 116, 769, 392
 238, 689, 768, 690, 769
 239, 689, 768, 535, 522
 240, 770, 562, 745, 555
 241, 770, 745, 562, 673
 242, 770, 675, 567, 771
 243, 677, 673, 770, 675
 244, 748, 747, 388, 389
 245, 605, 652, 462, 463
 246, 697, 652, 700, 703
 247, 652, 605, 700, 463
 248, 652, 569, 745, 698
 249, 462, 605, 210, 569
 250, 652, 703, 474, 463
 251, 772, 331, 773, 774
 252, 772, 775, 714, 688
 253, 772, 714, 776, 707
 254, 149, 777, 509, 660
 255, 748, 389, 388, 377
 256, 777, 660, 505, 509
 257, 777, 505, 135,  16
 258, 777, 660, 403, 505
 259, 777, 505, 403, 135
 260, 778, 768,  80, 779
 261, 768, 779, 536,   7
 262, 768, 780, 781, 778
 263, 768, 780, 769, 767
 264, 768, 781, 535, 536
 265, 779, 356, 778, 782
 266, 768,   7, 536, 522
 267, 141,  87, 398, 397
 268,  48, 291, 779, 103
 269, 768, 781, 779, 778
 270, 779, 103, 536,   7
 271, 536, 781, 103, 779
 272, 384, 383, 349, 338
 273, 783, 761, 530, 511
 274, 783, 511, 784, 761
 275, 783, 292, 284, 293
 276,  85, 750, 349, 143
 277, 783, 544, 292, 293
 278, 783, 293, 784, 544
 279, 783, 761, 284, 530
 280, 785, 786, 703, 679
 281, 785, 332, 787, 679
 282, 703, 788, 486, 785
 283, 788, 485, 216, 217
 284, 788, 785, 703, 789
 285, 785, 486, 787, 524
 286, 785, 787, 332, 343
 287, 785, 787, 343, 524
 288, 790, 628, 543, 528
 289, 791, 790, 792, 553
 290, 635, 242, 261, 262
 291, 756,   2,  46,  95
 292, 261, 635, 611, 242
 293, 791, 790, 793, 635
 294, 766, 162, 765, 740
 295, 765, 794, 588, 795
 296, 766, 596, 765,  19
 297, 796, 572, 186, 179
 298, 765, 794, 177, 588
 299, 765, 596, 177,  19
 300, 714, 775, 380, 392
 301, 713, 688, 392, 519
 302, 714, 341, 688, 716
 303, 714, 707, 381, 776
 304, 713, 714, 688, 716
 305, 697, 702, 699, 744
 306, 697, 701, 700, 699
 307, 697, 699, 702, 701
 308, 788, 703, 662, 789
 309, 653, 473, 652, 721
 310, 662, 788, 751, 721
 311, 697, 667, 670, 652
 312, 787, 681, 683, 215
 313, 785, 703, 786, 475
 314, 785, 679, 787, 786
 315, 708, 542,  89, 507
 316, 708, 797, 496,  88
 317, 708, 797, 346, 747
 318, 708, 496,  89,  88
 319, 708, 496, 797, 499
 320, 309, 672, 301, 752
 321, 318, 448, 446, 672
 322, 440, 446, 448, 181
 323, 384, 383, 338, 372
 324, 448, 309, 752, 672
 325, 666, 702, 674, 323
 326, 748, 674, 798, 323
 327, 798,  70, 799, 324
 328, 748, 324, 799, 376
 329, 798, 560, 799, 557
 330, 798, 557,  70,  69
 331, 678,  27, 800, 213
 332, 801, 678,  94,   5
 333, 678, 802,  94, 679
 334, 720, 801,  94, 487
 335, 720, 678, 213, 802
 336, 678, 212, 585,  27
 337, 803, 764, 587, 795
 338, 803, 587, 764, 195
 339, 803, 587, 194, 606
 340, 803, 764, 297,  59
 341, 803, 297, 764, 795
 342, 803, 804, 304, 606
 343, 803, 804, 194,   3
 344, 770, 567, 559, 150
 345, 770, 567, 150, 404
 346, 745, 770, 555, 746
 347, 677, 675, 770, 771
 348, 677, 670, 770, 673
 349, 650, 746, 805, 406
 350, 406, 555, 405, 746
 351, 770, 564, 675, 673
 352, 806, 561, 210, 556
 353, 696, 405, 416, 404
 354, 471, 433, 421, 422
 355, 417, 405, 416, 696
 356, 769, 775, 380, 807
 357, 768, 690, 769, 780
 358, 769, 780, 775, 807
 359, 775, 690, 689, 688
 360, 398, 386, 397, 347
 361, 769, 775, 392, 380
 362, 808, 535, 767, 809
 363, 808, 809, 275, 276
 364, 808, 535, 809, 531
 365, 808, 531, 118, 117
 366, 512, 752, 309, 810
 367, 752, 810, 512, 191
 368, 672, 671, 447, 446
 369, 752, 810, 191,  24
 370, 302, 672, 447, 752
 371, 666, 702, 744, 674
 372, 670, 745, 673, 698
 373, 189, 452, 447, 190
 374, 752, 810,  24, 190
 375, 752, 302, 452, 447
 376, 715, 750, 350, 546
 377, 705, 383, 749, 382
 378, 705, 716, 749, 340
 379, 749, 750, 394, 395
 380, 749, 340, 716, 351
 381, 805, 556, 209, 153
 382, 555, 805, 406, 152
 383, 384, 337, 372, 338
 384, 555, 746, 805, 745
 385, 770, 405, 746, 404
 386, 805, 806, 561, 745
 387, 650, 462, 806, 745
 388, 650, 653, 746, 417
 389, 805, 153, 406, 152
 390, 805, 555, 745, 561
 391, 678, 786, 213, 802
 392, 720, 678, 802,  94
 393, 720, 802, 214, 681
 394, 720, 802, 681,  93
 395, 787, 802, 679,  93
 396, 802, 679, 678, 786
 397, 547, 751, 721, 759
 398, 759, 547, 484, 721
 399, 723, 663, 667, 662
 400, 302,  54, 811, 303
 401, 759, 721, 651, 693
 402, 759, 754, 500, 501
 403, 765, 795, 588, 596
 404, 794, 178, 588, 320
 405, 794,   4, 320,  60
 406, 794, 320, 795, 313
 407, 177, 765, 443, 794
 408, 772, 707, 330, 341
 409, 776, 707, 704, 330
 410, 705, 716, 707, 382
 411, 714, 707, 341, 716
 412, 705, 340, 707, 716
 413, 812, 295, 287, 296
 414, 812, 813, 590, 280
 415, 812, 279, 813, 280
 416, 812, 279, 814, 813
 417, 812, 296, 288, 592
 418, 812, 607, 592, 590
 419, 504, 662, 541, 751
 420, 759, 484, 651, 721
 421, 751, 520, 789, 541
 422, 657, 751, 721, 662
 423, 665, 674, 666, 673
 424, 218, 759, 484, 815
 425, 721, 547, 484, 485
 426, 788, 789, 751, 520
 427, 788, 721, 547, 751
 428, 719, 638, 637, 629
 429, 816, 817, 818, 637
 430, 717, 719, 229, 817
 431, 817, 229, 717, 539
 432, 817, 818, 637, 263
 433, 819, 440, 446, 318
 434, 819, 181,  65, 441
 435, 819, 319, 318, 310
 436, 819, 796, 441, 319
 437, 819, 446, 180, 444
 438, 820,  51,  99, 354
 439,  51, 355, 294, 820
 440, 100, 820, 784, 362
 441, 820, 362, 100,  99
 442, 285, 763, 362, 820
 443, 820, 763, 360, 821
 444, 355, 820, 821, 294
 445, 820, 784, 293, 354
 446, 816, 822, 525, 823
 447, 822, 615, 824, 825
 448, 822, 824, 538, 823
 449, 668, 627, 628, 790
 450, 816, 823, 629, 621
 451, 822, 269, 238, 237
 452, 660, 509, 149, 428
 453, 822, 525, 823, 538
 454, 753, 826, 114, 827
 455, 827, 753, 113, 114
 456, 753,   1, 280, 590
 457, 396, 384, 349, 348
 458, 595, 753, 113, 827
 459, 112, 590,   1, 113
 460, 590,   1, 113, 753
 461, 644, 610, 641, 638
 462, 828, 684, 623, 687
 463, 685, 647, 622, 630
 464, 685, 686, 622, 647
 465, 644, 639, 727, 610
 466, 687, 648, 684, 685
 467, 667, 721, 703, 662
 468, 785, 679, 703, 701
 469, 660, 133, 134, 403
 470, 395, 383, 349, 384
 471, 721, 703, 662, 788
 472, 788, 721, 703, 474
 473, 650, 473, 472, 461
 474, 826, 114, 807, 115
 475, 826, 364, 274,  44
 476, 826, 115,  44, 365
 477, 274, 829, 780, 826
 478, 396,  86, 348, 349
 479, 826, 829, 273, 274
 480, 792, 627, 830, 790
 481, 619, 792, 627, 830
 482, 705, 327, 338, 371
 483, 705, 338, 327, 328
 484, 705, 338, 749, 383
 485, 704, 706, 602, 328
 486, 749, 383, 338, 349
 487, 704, 330, 577, 776
 488, 707, 776, 369, 381
 489, 577, 369, 122, 704
 490, 655, 722, 659, 506
 491, 655, 722, 506, 501
 492, 667, 666, 723, 702
 493, 657, 759, 655, 693
 494, 759, 831, 754, 651
 495, 662, 663, 667, 656
 496, 655, 176, 509, 428
 497, 759, 693, 651, 754
 498, 772, 341, 330, 331
 499, 693, 417, 651, 429
 500, 721, 657, 693, 759
 501, 792, 832, 613, 618
 502, 791, 553, 792, 551
 503, 270, 668, 613, 619
 504, 668, 613, 619, 830
 505, 792, 613, 832, 552
 506, 830,  33, 250, 240
 507, 830, 250,  33, 239
 508, 830, 552, 250, 613
 509, 830, 627, 668, 790
 510, 830, 668, 239, 543
 511, 709, 710, 457, 601
 512, 709, 710, 159, 413
 513, 711, 425, 712, 728
 514, 711, 726, 424, 425
 515, 711, 412, 710, 413
 516, 780, 283, 274, 767
 517, 282, 780, 283, 274
 518, 808,  43, 364, 117
 519, 364, 275, 808, 767
 520, 769, 767, 364, 116
 521, 769, 767, 780, 364
 522, 769, 364, 780, 115
 523, 767, 780, 364, 274
 524, 716, 394, 393, 382
 525, 833, 834, 442, 185
 526, 833, 835, 316, 315
 527, 527, 316, 184, 833
 528, 545, 527, 316, 184
 529, 833,  62,  63, 185
 530, 833, 184, 185,  63
 531, 714, 716, 393, 381
 532, 688, 775, 690, 774
 533, 772, 775, 688, 774
 534, 522, 519, 689, 688
 535, 714, 688, 775, 392
 536, 713, 714, 716, 393
 537, 688, 353, 690, 522
 538, 396, 348, 385, 384
 539, 760, 363, 763, 366
 540, 820, 293, 784, 285
 541, 820, 763, 286, 285
 542, 362, 285, 784, 761
 543, 836, 534, 835, 533
 544, 836, 837, 533, 835
 545, 767,  14, 117, 116
 546, 836, 533, 837, 199
 547, 768, 779, 781, 536
 548, 768, 767, 535, 781
 549, 781, 692, 809, 526
 550, 767, 275, 809, 283
 551, 689, 767, 116,  14
 552, 781, 526, 809, 535
 553, 807, 826, 829, 827
 554, 827, 838, 807, 773
 555, 827, 595, 838, 584
 556, 695, 660, 656, 669
 557, 695, 133, 660, 391
 558, 148, 149, 416, 695
 559, 658, 695, 428, 660
 560, 695, 149, 416, 428
 561, 677, 695, 404, 696
 562, 695, 404, 148, 771
 563, 669, 677, 771, 676
 564, 677, 675, 771, 676
 565, 656, 658, 660, 695
 566, 695, 391, 660, 669
 567, 677, 404, 770, 746
 568, 817, 263, 609, 244
 569, 817, 609, 263, 637
 570, 816, 818, 528, 636
 571, 818, 262, 243, 528
 572, 818, 529, 243, 244
 573, 816, 818, 636, 637
 574, 735, 738, 741, 736
 575, 803, 195, 194, 587
 576, 451,  59, 737, 764
 577, 305, 795, 743, 764
 578, 596, 795, 597, 742
 579, 694, 391, 403, 402
 580, 792, 550, 551, 553
 581,  25, 764, 742, 597
 582, 764, 597,  25, 195
 583, 803, 795, 587, 304
 584, 671, 796, 839, 445
 585, 839,  23, 193, 188
 586, 839, 193,  23, 187
 587, 839, 811, 445, 188
 588, 839, 804, 606, 303
 589, 839, 453, 804, 811
 590, 839, 804, 193, 606
 591, 839, 193, 187, 572
 592, 402, 747, 664, 663
 593, 666, 656, 663, 669
 594, 656, 667, 662, 657
 595, 797, 137, 138, 401
 596, 723, 702, 333, 701
 597, 723, 345, 840, 344
 598, 666, 723, 334, 747
 599, 667, 701, 723, 662
 600, 608,  69, 568, 323
 601, 798, 557,  69, 560
 602, 799, 128, 557, 129
 603, 799, 748, 841, 674
 604, 799, 129, 554, 130
 605, 799, 841, 554, 674
 606, 799, 560, 674, 554
 607, 797, 496, 138, 137
 608, 708, 345, 747, 346
 609, 708, 345, 723, 747
 610, 507, 708, 840, 661
 611, 708, 499,  89, 496
 612, 661, 747, 664, 797
 613, 797, 494, 664, 499
 614, 449, 752, 448, 191
 615, 810, 201, 190, 452
 616, 750,  84,  85, 350
 617, 810, 201,  55,  56
 618, 842, 810, 300, 532
 619, 810,  55, 452, 301
 620, 843, 258, 247,  36
 621, 843, 246, 258,  36
 622, 843, 258, 844, 259
 623, 843, 845, 846, 549
 624, 612, 247, 845, 843
 625, 246, 245, 549, 843
 626, 828, 623, 266, 624
 627, 599, 648, 684, 687
 628, 684, 648,  31, 233
 629, 683,   8,  92, 524
 630, 828, 632, 586, 687
 631, 684, 255, 828, 616
 632, 684, 648, 599,  31
 633, 829, 757, 290, 778
 634, 753, 758, 838, 595
 635, 827, 826, 829, 753
 636, 829, 757, 758, 281
 637, 829, 807, 838, 774
 638, 829, 827, 838, 807
 639, 753, 829, 838, 758
 640, 804, 453,  53, 811
 641, 804, 606, 194, 193
 642, 839, 572, 606, 193
 643, 803, 804,   3, 304
 644, 804, 303, 304, 606
 645, 814, 111, 106,  11
 646, 654, 359, 847, 814
 647, 771, 133, 391, 132
 648, 654, 814, 813, 367
 649, 279, 814, 813, 654
 650, 812, 813, 814, 607
 651, 814, 573, 111, 105
 652, 814, 359, 106, 367
 653, 814, 813, 111, 607
 654, 727, 640,  37, 639
 655,  29, 256, 231, 600
 656, 256,  37, 640, 257
 657, 817, 818, 244, 529
 658, 644, 685, 630, 645
 659, 727, 594, 687, 600
 660, 644, 687, 727, 639
 661, 754, 495, 174, 831
 662, 831, 495, 815, 759
 663, 125,  72, 325,  71
 664, 483, 831, 173, 219
 665, 816, 817, 823, 529
 666, 675, 379, 841, 558
 667, 831, 173, 495, 174
 668, 432, 431, 173, 483
 669, 831, 219, 815, 495
 670, 637, 823, 629, 816
 671, 831, 651, 815, 483
 672, 808, 531, 117, 535
 673, 439, 729, 518, 848
 674, 729, 848, 439, 427
 675, 729, 477, 848, 755
 676, 729, 848, 427, 734
 677, 729, 728, 734, 426
 678, 691, 104, 573, 105
 679, 691, 355, 821, 295
 680, 691, 359, 821, 358
 681, 691, 358,   9, 104
 682, 592,   2,  97, 691
 683, 812, 295, 691, 287
 684, 748, 335, 747, 334
 685, 663, 694, 664, 402
 686, 494, 136, 137, 797
 687, 708, 542, 840, 345
 688, 708, 797, 661, 499
 689, 797, 661, 499, 664
 690, 845, 260, 633, 634
 691, 845, 247, 248, 549
 692, 845, 248, 247, 612
 693, 843, 633, 845, 612
 694, 791, 845, 626, 634
 695, 795, 743, 764, 742
 696, 737, 742, 739, 196
 697, 766, 740, 742, 733
 698, 742, 739,  25, 583
 699, 742, 583,  25, 597
 700, 735, 740, 742, 743
 701, 765, 742, 795, 596
 702, 702, 699, 608, 322
 703, 568, 699, 608, 702
 704, 702, 674, 568, 744
 705, 702, 701, 699, 322
 706, 723, 840, 662, 701
 707, 142,  85,  86, 396
 708, 697, 667, 652, 703
 709, 655, 659, 509, 506
 710, 797, 747, 400, 346
 711, 669, 656, 696, 665
 712, 660, 659, 694, 403
 713,  18, 149, 777, 509
 714, 660, 134, 133, 149
 715, 660, 659, 505, 509
 716, 688, 690, 353, 342
 717, 655, 693, 759, 754
 718, 651, 472, 473, 484
 719, 818, 263, 636, 637
 720, 417, 696, 416, 693
 721, 657, 751, 722, 759
 722, 495, 759, 218, 815
 723, 693, 651, 754, 429
 724, 652, 703, 721, 474
 725, 670, 698, 652, 745
 726, 315, 834, 442, 833
 727, 185, 833,  62, 442
 728, 833, 834, 185, 534
 729, 741, 315, 306, 307
 730, 314, 315, 306, 741
 731, 834, 730, 849, 850
 732, 522, 146, 689, 519
 733, 446, 310, 672, 671
 734, 441, 819, 180, 796
 735, 796, 179,  21, 180
 736, 796, 444,  21, 186
 737, 796, 572, 839, 186
 738, 186, 572, 839, 187
 739, 796, 444, 186, 445
 740, 796, 572, 179, 589
 741, 796, 311, 589, 319
 742, 806, 461, 209, 462
 743, 650, 461, 806, 462
 744, 806, 745, 569, 561
 745, 806, 745, 462, 569
 746, 806, 556, 210, 209
 747, 642, 685, 644, 645
 748, 687, 631, 632, 640
 749,  29, 231, 649, 600
 750, 778, 356,  79,  47
 751, 642, 646, 648, 685
 752, 600, 231, 649, 644
 753, 687, 640, 727, 639
 754, 642, 487, 720, 488
 755, 647, 646, 685, 686
 756, 646, 686, 718, 234
 757, 684, 686, 234, 616
 758, 648, 720, 800, 646
 759, 648, 233, 646, 574
 760, 642, 648, 646, 720
 761, 851, 617, 846, 625
 762, 851, 846, 548, 549
 763, 851, 852, 571, 603
 764, 603, 851, 617, 253
 765, 851, 253,  35, 252
 766, 851,  35, 253, 245
 767, 731, 732, 712, 734
 768, 712, 728, 426, 734
 769, 712, 466, 728, 734
 770, 709, 711, 457, 710
 771, 709, 578, 160, 159
 772,  59, 451, 737,  58
 773, 812, 691, 814, 287
 774, 360, 355, 820, 821
 775, 821, 287, 295, 286
 776, 847, 359, 361, 821
 777, 763, 360, 821, 361
 778, 821, 814, 847, 359
 779, 791, 790, 635, 627
 780, 242, 790, 635, 793
 781, 635, 611, 242, 793
 782, 791, 793, 249, 611
 783, 793, 553, 241, 510
 784, 793, 553,  34, 241
 785, 793, 249, 242,  34
 786, 738, 848, 476, 755
 787, 733, 732, 755, 739
 788, 738, 848, 849, 198
 789, 738, 476, 848, 198
 790, 739, 732, 755, 465
 791, 643, 646, 647, 718
 792, 715, 393, 716, 394
 793, 718, 681, 491, 492
 794, 718, 647, 719, 825
 795, 718, 686, 825, 615
 796, 615, 718, 234, 235
 797, 567, 150, 147,  17
 798,  95, 757,  78, 357
 799, 829, 757, 774, 838
 800, 757,  79, 774,  78
 801, 757,  79, 778, 774
 802, 757,  78, 838, 598
 803, 829, 774, 757, 778
 804, 829, 758, 757, 838
 805, 822, 237, 824, 615
 806, 235, 615, 718, 824
 807, 822, 825, 824, 823
 808, 824,  32, 514, 235
 809, 848, 849, 198, 523
 810, 714, 393, 392, 381
 811, 849, 730, 523, 850
 812, 729, 755, 728, 477
 813, 848, 755, 477, 476
 814, 523, 848, 476, 198
 815, 518, 848, 476, 523
 816, 724, 438, 729, 516
 817, 439, 850, 848, 523
 818, 523, 848, 439, 518
 819, 683, 680, 682, 515
 820,  54, 303,  53, 811
 821, 680, 682, 513, 717
 822, 641, 643, 719, 682
 823, 787, 681, 802,  93
 824, 720, 681, 214, 491
 825, 735, 306, 741, 743
 826, 738, 850, 741, 849
 827, 836,  57, 837, 299
 828, 735, 306, 737, 736
 829, 737, 736,  58, 197
 830, 737, 305, 764, 297
 831, 736,  58, 197, 450
 832, 737,  58, 736, 298
 833, 781, 778, 780, 283
 834, 781, 103, 291, 692
 835, 778, 356,  47, 782
 836, 690, 778, 768,  80
 837, 778, 780, 283, 282
 838, 829, 780, 778, 282
 839, 784, 110, 101,  10
 840, 784, 100, 110,  10
 841, 705, 383, 382, 371
 842, 763, 847, 278, 361
 843, 820, 285, 784, 362
 844, 784, 101, 544, 293
 845,  50, 354, 293, 101
 846, 354, 293, 101, 784
 847, 787, 802, 681, 214
 848, 680, 492, 718, 235
 849, 646, 234, 718, 491
 850, 681,  92, 683, 489
 851, 714, 380, 776, 381
 852, 680, 681, 643, 718
 853, 680, 215, 681, 492
 854, 787,  92, 524, 683
 855, 524, 215, 787, 683
 856, 683,   8,  28, 515
 857, 683,  28, 524, 215
 858, 738, 755, 476, 465
 859, 732, 755, 466, 734
 860, 755, 739, 738, 733
 861, 848, 738, 733, 755
 862, 465, 739, 738, 755
 863, 848, 740, 738, 850
 864, 729, 848, 734, 755
 865, 729, 728, 755, 734
 866, 755, 728, 466, 734
 867, 790, 668, 543, 628
 868, 248, 791, 611, 845
 869, 634, 845, 260, 611
 870, 791, 248, 611, 249
 871, 791, 551, 792, 846
 872, 791, 792, 790, 627
 873, 791, 793, 553, 249
 874, 790, 793, 242, 510
 875, 791, 635, 793, 611
 876, 724, 729, 438, 728
 877, 755, 466, 728, 477
 878, 711, 728, 467, 726
 879, 711, 412, 424, 469
 880, 712, 467, 728, 466
 881, 728, 726, 425, 437
 882, 711, 726, 467, 468
 883, 728, 726, 478, 467
 884, 642, 643, 230, 488
 885, 801, 649, 575, 227
 886, 790, 830, 552, 510
 887, 720, 648, 576, 801
 888, 649, 600, 644, 648
 889, 649,  29, 227, 231
 890, 570,  15, 771, 379
 891, 648, 649, 801, 720
 892, 580, 415, 414, 161
 893, 648, 800, 720, 576
 894, 684, 685, 622, 623
 895, 684, 687, 828, 599
 896, 753, 758, 280, 273
 897, 615, 718, 824, 825
 898, 686, 616, 622, 267
 899, 686, 622, 647, 825
 900, 686, 267, 622, 615
 901, 841, 674, 676, 675
 902, 675, 673, 566, 563
 903, 695, 669, 677, 771
 904, 665, 675, 677, 676
 905, 675, 379, 771, 676
 906, 675, 771, 570, 567
 907, 770, 567, 675, 564
 908, 675, 673, 564, 566
 909, 707, 716, 381, 382
 910, 707, 716, 340, 341
 911, 772, 342, 688, 341
 912, 776, 773, 330, 579
 913, 772, 773, 331, 330
 914, 368, 776, 579, 773
 915, 772, 776, 714, 775
 916, 851, 571, 843, 245
 917, 845, 625, 846, 626
 918, 845, 625, 634, 633
 919, 548, 614, 252, 832
 920, 846, 614, 832, 618
 921, 851, 846, 843, 625
 922, 845, 551, 846, 549
 923, 846, 832, 548, 550
 924, 792, 552, 830, 613
 925, 656, 659, 664, 694
 926, 708, 840, 661, 723
 927, 661, 664, 502, 499
 928, 661, 840, 541, 662
 929, 661, 840, 507, 541
 930, 740, 443, 765, 743
 931, 766, 740, 415, 162
 932, 740, 733, 415, 427
 933, 740, 314, 741, 163
 934, 740, 741, 314, 743
 935, 740, 427, 848, 733
 936, 735, 742, 733, 739
 937, 738, 735, 197, 736
 938, 713, 351, 715, 716
 939, 713, 715, 351, 517
 940, 772, 714, 707, 341
 941, 704, 707, 705, 329
 942, 704, 707, 776, 369
 943, 749, 394, 716, 382
 944, 705, 382, 749, 716
 945, 705, 340, 749, 339
 946, 688, 716, 341, 352
 947, 776, 368, 775, 773
 948, 707, 370, 382, 381
 949, 732, 583, 454, 739
 950, 734, 733, 427, 415
 951, 712, 426, 728, 425
 952, 734, 733, 415, 414
 953, 580, 583, 454, 732
 954, 728, 478, 466, 467
 955, 836, 199,  57, 450
 956, 836, 307, 736, 299
 957, 836, 199, 537, 533
 958, 836, 837, 835, 299
 959, 837, 835, 300, 532
 960, 837, 533, 200, 199
 961, 300,  56, 837, 532
 962, 730, 850, 164, 439
 963,  20, 534, 834, 730
 964, 834, 164, 730, 850
 965, 850, 730, 523, 439
 966, 730, 534, 849, 523
 967, 758, 590, 288, 592
 968, 758, 591, 590, 592
 969, 758, 838, 595, 598
 970, 753, 758, 595, 590
 971, 829, 758, 273, 281
 972, 695, 656, 696, 669
 973, 657, 655, 759, 722
 974, 218, 759, 500, 508
 975, 757, 838,  78, 774
 976, 598, 756, 758, 757
 977, 826, 829, 780, 807
 978, 281, 757, 290, 829
 979, 753, 827, 595, 838
 980, 753, 827, 838, 829
 981, 838, 773, 774, 807
 982, 829, 774, 780, 807
 983, 756, 758, 757, 289
 984, 758, 598, 595, 591
 985, 146, 392, 519, 393
 986, 731, 712, 414, 734
 987, 764, 305, 795, 297
 988, 766, 583, 596,  19
 989, 743, 765, 740, 742
 990, 766, 583,  19, 161
 991, 739, 733, 732, 583
 992, 733, 580, 583, 161
 993, 660, 403, 694, 391
 994, 694, 664, 402, 498
 995, 659, 498, 505, 503
 996, 715, 393, 394, 145
 997, 777, 509,  16,  18
 998, 659, 509, 503, 505
 999, 772, 707, 776, 330
1000, 769, 807, 115, 780
1001, 775, 773, 368, 807
1002, 776, 380, 775, 368
1003, 775, 780, 690, 774
1004, 772, 773, 775, 774
1005, 750, 143,  85,  84
1006, 331, 584, 579, 773
1007, 584, 773, 368, 579
1008, 368, 584, 120, 827
1009, 772, 776, 775, 773
1010, 349, 749, 750, 350
1011, 775, 774, 773, 807
1012, 680, 682, 643, 681
1013, 642, 648, 720, 649
1014, 787, 683, 681,  92
1015, 680, 681, 718, 492
1016, 643, 719, 682, 717
1017, 643, 488, 682, 230
1018, 643, 682, 641, 230
1019, 835, 532, 308, 300
1020, 833, 834, 835, 315
1021, 837, 835, 299, 300
1022, 835, 308, 532, 527
1023, 835, 315, 307, 316
1024, 835, 308, 527, 316
1025, 642, 643, 488, 720
1026, 647, 719, 630, 645
1027, 684, 648, 646, 685
1028, 686, 825, 615, 622
1029, 768, 778, 690, 780
1030, 689,  14, 522, 535
1031, 689, 522,  14, 146
1032, 778, 690, 780, 774
1033, 690, 342, 774,  79
1034, 519, 689, 688, 392
1035, 689, 690, 768, 522
1036, 768,  81,   7, 522
1037, 768, 690, 353, 522
1038, 522, 768,  81, 353
1039, 500, 754, 759, 495
1040, 593, 258, 257, 844
1041, 815, 759, 484, 651
1042, 660, 133, 403, 391
1043, 840, 521, 344, 542
1044, 776, 381, 380, 369
1045, 814, 287, 691, 821
1046, 714, 775, 776, 380
1047, 369, 368, 776, 579
1048, 772, 688, 714, 341
1049, 769, 775, 780, 690
1050, 778, 357,  47,  79
1051, 827, 838, 773, 584
1052, 396, 395, 349, 384
1053, 757, 357, 778,  79
1054, 808, 767, 117, 364
1055, 808, 117, 767, 535
1056,  14, 767, 535, 689
1057, 117,  14, 767, 535
1058, 767, 781, 780, 283
1059, 809, 284, 276, 530
1060, 388, 376, 387, 335
1061, 781, 535, 536, 526
1062, 692, 530, 284, 809
1063, 354, 100, 820, 784
1064, 781, 283, 809, 692
1065, 662, 722, 504, 661
1066, 663, 747, 664, 661
1067, 723, 334, 747, 345
1068, 723, 840, 701, 344
1069, 723, 344, 701, 333
1070, 840, 541, 789, 521
1071, 840, 789, 662, 701
1072, 840, 789, 344, 521
1073, 794, 588, 795, 320
1074, 795, 587, 304, 606
1075, 795, 589, 587, 606
1076, 764, 795, 597, 587
1077, 747, 723, 661, 663
1078, 694, 669, 391, 390
1079, 663, 694, 390, 669
1080, 694, 498, 402, 403
1081, 655, 497, 506, 509
1082, 667, 656, 663, 666
1083, 748, 798, 674, 799
1084, 661, 659, 656, 722
1085, 789, 701, 344, 343
1086, 789, 524, 521, 520
1087, 789, 788, 751, 662
1088, 751, 789, 662, 541
1089, 840, 789, 541, 662
1090, 643, 491, 720, 646
1091, 681, 489, 682, 488
1092, 720,  93, 488,  94
1093, 785, 703, 475, 486
1094, 644, 630, 685, 631
1095, 720, 490, 646, 491
1096, 643, 491, 718, 681
1097, 642, 647, 685, 645
1098, 643, 720, 681, 488
1099, 697, 744, 699, 698
1100, 786, 679, 464, 703
1101, 699, 700, 679, 701
1102, 703, 463, 700, 464
1103, 681, 214, 492, 215
1104, 684, 616, 828, 623
1105, 718, 825, 719, 717
1106, 349, 143, 396,  85
1107, 464, 786, 213, 678
1108, 575, 649, 801, 648
1109, 720, 646, 490, 800
1110, 648, 574, 646, 800
1111, 684, 616, 233, 255
1112, 684, 255, 233,  31
1113, 648, 599,  31, 574
1114, 753,  45, 273,   1
1115, 853, 192, 182, 448
1116, 853, 440, 317, 318
1117, 853, 448, 440, 318
1118, 842, 317, 853, 545
1119, 400, 388, 399, 346
1120,  64, 317, 183, 440
1121, 397, 396, 348, 385
1122, 759, 218, 547, 508
1123, 815, 495, 219, 218
1124, 831, 483, 815, 219
1125, 759, 815, 831, 651
1126, 754, 493, 497, 175
1127, 397, 396,  86, 348
1128, 831, 651, 483, 431
1129, 754, 500, 493, 495
1130, 175, 174, 430, 754
1131, 741, 442, 163, 314
1132, 735, 741, 740, 743
1133, 741, 314, 743, 306
1134, 841, 674, 563, 554
1135, 841, 130, 558, 378
1136, 841, 558, 130, 554
1137, 377, 799, 748, 841
1138, 675, 841, 379, 676
1139, 748, 841, 674, 676
1140, 841, 379, 676, 378
1141, 769, 690, 689, 775
1142, 773,  78, 774, 331
1143, 827, 773, 807, 368
1144, 827, 584,  13, 595
1145, 769, 115, 807, 380
1146, 826, 807, 780, 115
1147, 827,  13, 584, 120
1148, 790, 635, 627, 636
1149, 827, 807, 114, 368
1150, 206, 710, 458, 158
1151, 141,  86,  87, 397
1152, 412, 158, 411, 458
1153, 709, 456, 601, 457
1154, 709, 731, 712, 414
1155, 694, 402, 390, 391
1156, 710, 601, 159, 158
1157, 399, 346, 398,  88
1158, 816, 817, 637, 823
1159, 823, 817, 637, 719
1160, 647, 719, 825, 622
1161, 622, 621, 630, 719
1162, 719, 645, 638, 630
1163, 684, 599, 828, 255
1164, 818, 262, 244, 243
1165, 680, 718, 824, 235
1166, 398, 397,  87, 347
1167, 644, 645, 630, 638
1168, 682, 717, 229,  30
1169, 643, 719, 647, 645
1170, 824, 717, 823, 825
1171, 235, 680, 514, 824
1172, 680, 643, 717, 718
1173, 682, 717,  30, 513
1174, 717, 539,  30, 513
1175, 717, 823, 539, 538
1176, 824, 538, 717, 514
1177, 680, 717, 513, 514
1178, 832, 548, 550, 252
1179, 846, 618, 617, 614
1180, 792, 832, 550, 552
1181, 791, 626, 845, 846
1182, 792, 618, 613, 619
1183, 552, 251, 613, 832
1184, 250, 552, 251, 613
1185, 832, 614, 271, 618
1186, 832, 271, 613, 618
1187, 723, 661, 662, 840
1188, 789, 520, 216, 524
1189, 703, 789, 701, 662
1190, 386, 374, 385, 336
1191, 699, 581, 700, 604
1192, 581, 700, 679, 699
1193, 322, 608, 581, 699
1194, 747, 401, 400, 389
1195, 702, 744, 568, 699
1196, 760, 109, 511, 363
1197, 760, 511, 109, 119
1198, 760, 366, 762, 119
1199, 761, 762, 277, 276
1200, 761, 511, 362, 363
1201, 760, 277, 762, 366
1202, 735, 742, 737, 743
1203, 766, 742, 583, 733
1204, 202, 454, 583,  25
1205, 454, 583,  25, 739
1206, 738, 848, 850, 849
1207, 162, 740, 443, 765
1208, 742, 733, 739, 583
1209, 384, 337, 373, 372
1210, 765, 742, 743, 795
1211, 742,  25, 739, 196
1212, 735, 740, 738, 733
1213, 732, 466, 465, 454
1214, 850, 427, 848, 740
1215, 806, 210, 561, 569
1216, 650, 407, 805, 461
1217, 650, 746, 745, 805
1218, 650, 461, 805, 806
1219, 746, 805, 406, 555
1220, 473, 462, 650, 652
1221, 805, 561, 556, 555
1222, 745, 562, 698, 569
1223, 824, 237,  32, 235
1224, 824, 237, 538,  32
1225, 708, 661, 747, 723
1226, 684, 648, 233, 646
1227, 719, 717, 825, 823
1228, 641, 719, 645, 638
1229, 718, 686, 647, 825
1230, 643, 646, 718, 491
1231, 668, 238, 269, 239
1232, 822, 620, 525, 543
1233, 822, 238, 543, 525
1234, 528, 262, 242, 790
1235, 791, 790, 553, 793
1236, 668, 620, 543, 628
1237, 668, 619, 620, 628
1238, 830, 510, 543, 239
1239, 790, 830, 792, 552
1240, 792, 627, 626, 618
1241, 647, 630, 719, 622
1242, 817, 717, 823, 539
1243, 816, 620, 621, 629
1244, 822, 543, 668, 620
1245, 621, 615, 822, 825
1246, 719, 621, 630, 629
1247, 824, 823, 717, 538
1248, 822, 825, 823, 621
1249, 268, 621, 615, 822
1250, 812, 814, 573, 607
1251, 814, 607, 111, 573
1252, 813, 112, 607, 590
1253, 813,  39,   1, 280
1254, 813, 111, 607, 112
1255, 469, 726, 468, 480
1256, 480, 424, 469, 726
1257, 726, 424, 469, 711
1258, 711, 468, 456, 457
1259, 711, 468, 467, 456
1260, 676, 379, 390, 378
1261, 725, 726, 480, 479
1262, 166, 516, 438, 167
1263, 726, 479, 478, 467
1264, 798,  69, 568, 560
1265, 798, 674, 568, 323
1266, 798, 557, 799,  70
1267, 748, 798, 799, 324
1268, 674, 676, 675, 665
1269, 674, 744, 673, 563
1270, 674, 744, 563, 568
1271, 748, 841, 378, 377
1272, 799, 554, 557, 560
1273, 761, 762, 530, 119
1274, 761, 285, 284, 276
1275, 762, 531, 276, 530
1276, 762, 118, 531, 530
1277, 784, 761, 511, 362
1278, 783, 761, 285, 284
1279, 762,  41, 366, 277
1280, 762,  42,  41, 277
1281, 762, 118, 119,  42
1282, 785, 701, 789, 343
1283, 723, 333, 702, 334
1284, 699, 744, 568, 604
1285, 698, 673, 566, 562
1286, 698, 744, 566, 673
1287, 680, 718, 717, 824
1288, 700, 605, 582, 463
1289, 700, 605, 604, 582
1290, 670, 746, 653, 696
1291, 136, 664, 797, 494
1292, 664, 494, 136, 498
1293, 398, 387, 386, 346
1294, 658, 693, 428, 416
1295, 656, 660, 659, 694
1296, 747, 388, 346, 335
1297, 747, 401, 390, 402
1298, 677, 770, 670, 746
1299, 665, 670, 673, 666
1300, 669, 676, 391, 390
1301, 659, 694, 403, 498
1302, 675, 563, 674, 673
1303, 698, 697, 744, 673
1304, 748, 378, 676, 390
1305, 665, 669, 666, 676
1306, 698, 566, 744, 604
1307, 701, 321, 699, 322
1308, 657, 653, 693, 696
1309, 695, 391, 771, 133
1310, 771, 132, 148, 133
1311, 139, 400, 399,  88
1312, 695, 669, 771, 391
1313, 771, 391, 676, 379
1314, 852, 640, 633, 844
1315, 852, 593, 640, 844
1316, 852, 632, 586, 624
1317, 852, 617, 625, 624
1318, 852, 632, 640, 593
1319, 851, 245, 253, 571
1320, 852, 632, 593, 586
1321, 843, 571, 852, 593
1322, 682, 513,  30, 228
1323, 720, 801, 576, 678
1324, 641, 230, 229, 609
1325, 682, 515, 513, 228
1326, 730, 523, 165,  20
1327, 739, 465, 196, 454
1328, 736, 741, 307, 849
1329, 740, 163, 850, 427
1330, 523, 850, 848, 849
1331, 790, 552, 792, 553
1332, 439, 523, 165, 730
1333, 849, 198,  26, 836
1334, 834, 741, 850, 849
1335, 797, 400, 747, 401
1336, 740, 427, 162, 163
1337, 733, 848, 734, 427
1338, 700, 581, 585, 582
1339, 464, 212, 585, 678
1340, 787, 802, 214, 786
1341, 321, 678, 679, 585
1342, 702, 701, 322, 333
1343, 679, 464, 703, 700
1344, 697, 744, 666, 702
1345, 699, 322, 321, 581
1346, 785, 787, 475, 786
1347, 787,  93, 679, 332
1348, 523, 198,  26, 849
1349, 850, 164, 439, 163
1350, 730, 523,  20, 534
1351, 665, 669, 677, 696
1352, 834, 730, 534, 849
1353, 140, 398,  87,  88
1354, 770, 771, 567, 404
1355, 675, 567, 570, 565
1356, 666, 723, 702, 334
1357, 378, 130, 377, 841
1358, 666, 702, 323, 334
1359, 666, 748, 747, 334
1360, 558, 675, 563, 841
1361, 675, 565, 570, 558
1362, 748, 747, 335, 388
1363, 659, 664, 498, 502
1364, 748, 377, 388, 376
1365, 659, 509, 660, 658
1366, 675, 841, 674, 563
1367, 770, 151, 559, 555
1368, 721, 651, 473, 484
1369, 669, 676, 771, 391
1370, 655, 693, 754, 429
1371, 696, 665, 670, 677
1372, 770, 559, 564, 562
1373, 142, 143,  85, 396
1374, 747, 400, 388, 389
1375, 395, 143, 396, 349
1376, 660, 391, 694, 669
1377, 715, 144, 517, 145
1378, 715, 546, 350, 351
1379, 750, 546, 144, 143
1380, 395, 349, 749, 750
1381, 309, 810, 842, 512
1382, 842, 308, 527, 532
1383, 545, 842, 512, 853
1384, 853, 182, 192,  22
1385, 842, 308, 316, 527
1386, 853, 183, 512, 545
1387, 842, 316, 308, 317
1388, 676, 669, 666, 390
1389, 788, 721, 474, 485
1390, 722, 508, 504, 501
1391, 748, 841, 676, 378
1392, 559, 770, 150, 151
1393, 822, 538, 824, 237
1394, 788, 785, 789, 486
1395, 809, 526, 692, 530
1396, 103, 292, 102,  49
1397, 758, 281, 288, 280
1398, 102, 526, 692, 103
1399, 386, 336, 347, 346
1400, 103, 526, 692, 781
1401, 309, 810, 300, 842
1402, 309, 317, 853, 842
1403, 613, 271, 619, 618
1404, 812, 288, 296, 287
1405, 779,  80, 356, 103
1406, 812, 573, 691, 592
1407, 812, 592, 607, 573
1408,  49, 103, 291,  48
1409,   2, 295, 691, 592
1410, 283, 692, 292, 284
1411, 103,  48, 356, 779
1412, 758, 281, 280, 273
1413, 812, 814, 691, 573
1414, 292, 291, 103, 692
1415, 781, 692, 291, 283
1416,  96, 592,   2,  97
1417, 291, 692, 292, 283
1418, 530, 526, 692, 544
1419, 779,  80, 778, 356
1420, 783, 544, 530, 284
1421, 812, 296, 592, 295
1422, 783, 284, 285, 293
1423, 783, 284, 292, 544
1424,  63,  64, 316, 183
1425, 778,  79, 356,  80
1426, 809, 530, 531, 526
1427, 812, 288, 590, 592
1428, 830, 239, 668, 613
1429, 179, 589, 320, 319
1430, 790, 543, 830, 510
1431, 792, 619, 627, 618
1432, 319, 179,   4, 320
1433, 683, 228,  92,   8
1434, 816, 822, 621, 620
1435, 696, 669, 677, 695
1436, 759, 508, 501, 500
1437, 642, 649, 487, 231
1438, 486, 524, 215, 787
1439,  69, 568, 323, 798
1440,  48, 782,  47, 356
1441, 650, 805, 745, 806
1442, 778, 782,  47, 290
1443, 661, 659, 502, 664
1444, 841, 558, 554, 563
1445, 656, 658, 696, 657
1446,  47, 290, 782,  48
1447, 667, 652, 703, 721
1448, 604, 699, 608, 568
1449,  48, 290, 782, 291
1450, 212, 213, 678, 464
1451, 785, 701, 703, 789
1452,  67, 581, 585, 321
1453, 842, 316, 317, 545
1454, 574, 232, 800, 576
1455, 720, 213, 678, 800
1456, 816, 818, 817, 529
1457, 801, 648, 576, 575
1458, 816, 528, 628, 636
1459, 685, 647, 630, 645
1460, 718, 235, 491, 234
1461, 399, 398, 346, 387
1462, 843, 633, 612, 259
1463, 843, 852, 625, 633
1464, 845, 626, 634, 625
1465, 814, 367, 654, 359
1466, 657, 696, 665, 670
1467, 813, 112, 590,   1
1468, 813, 590, 280,   1
1469, 821, 361, 358, 359
1470, 795, 606, 304, 589
1471, 452, 447, 190, 752
1472, 444, 671, 819, 446
1473, 818, 262, 636, 263
1474, 790, 528, 262, 636
1475, 183, 545, 316, 184
1476, 842, 527, 316, 545
1477, 782, 291, 779,  48
1478, 400, 346, 399,  88
1479, 367, 654,  39, 813
1480, 813, 654,  39, 279
1481, 778, 291, 290, 282
1482, 692, 292, 102, 103
1483, 830, 239, 613, 250
1484, 687, 623, 828, 632
1485, 845, 248, 551, 549
1486, 843, 245, 549, 851
1487, 797, 138,  88, 400
1488, 843, 852, 633, 844
1489, 843, 246, 247, 549
1490, 843, 258, 246, 571
1491, 405, 406, 746, 417
1492, 279,  40, 278, 654
1493, 361, 359, 847, 654
1494, 287, 278, 847, 279
1495, 847, 361, 654, 278
1496, 763, 847, 821, 286
1497, 286, 278, 847, 287
1498, 830, 239, 240, 510
1499, 832, 251, 613, 271
1500, 843, 852, 844, 593
1501, 843, 845, 625, 846
1502, 792, 626, 846, 618
1503, 832, 550, 552, 251
1504, 844, 633, 259, 640
1505, 836, 299, 835, 307
1506, 836, 533, 537, 534
1507, 837,  56,  57, 199
1508,  37, 844, 258, 259
1509, 836, 849, 537,  26
1510, 736, 197, 198, 450
1511, 661, 541, 507, 504
1512, 767, 275, 274, 364
1513, 844, 640, 259,  37
1514, 845, 791, 611, 634
1515, 823, 525, 529, 538
1516, 638, 265, 610, 264
1517, 234, 684, 233, 646
1518, 648, 575, 600, 599
1519, 687, 594, 640, 632
1520, 720, 490, 213, 800
1521, 684, 623, 622, 616
1522, 687, 623, 632, 631
1523, 824, 615, 237, 235
1524, 717, 538, 539, 513
1525, 648, 687, 599, 600
1526, 816, 525, 628, 528
1527, 720, 800, 678, 576
1528, 645, 641, 643, 719
1529, 678, 800,  27, 576
1530, 817, 823, 529, 539
1531, 822, 668, 543, 238
1532, 790, 528, 636, 628
1533, 791, 635, 626, 627
1534, 790, 510, 528, 543
1535, 619, 830, 627, 668
1536, 668, 620, 619, 270
1537, 846, 618, 626, 617
1538, 852, 632, 624, 625
1539, 852, 633, 632, 625
1540, 632, 623, 828, 624
1541, 852, 624, 603, 617
1542, 232,  27, 490, 800
1543, 828, 255, 266, 616
1544, 828, 586, 255, 599
1545, 685, 631, 630, 622
1546, 720, 801, 487, 649
1547, 616, 684, 233, 234
1548, 801, 487,   5,  94
1549, 686, 615, 718, 234
1550, 622, 621, 615, 268
1551, 823, 529, 539, 538
1552, 822, 621, 620, 269
1553, 622, 267, 268, 615
1554, 525, 620, 628, 543
1555, 822, 668, 238, 269
1556, 720, 801, 678,  94
1557, 816, 528, 529, 525
1558, 623, 267, 622, 616
1559, 792, 846, 550, 832
1560, 635, 611, 634, 261
1561, 822, 621, 269, 268
1562, 852, 603, 851, 617
1563, 634, 261, 611, 260
1564, 851, 852, 843, 571
1565, 832, 846, 548, 614
1566, 832, 251, 252, 550
1567, 832, 251, 271, 614
1568, 791, 846, 792, 626
1569, 386, 375, 374, 335
1570, 253, 254, 624, 603
1571, 828, 254, 624,  38
1572, 376, 324, 375, 335
1573, 632, 586, 594, 593
1574, 624, 632, 586, 828
1575, 830, 510, 240, 552
1576, 260, 612, 633, 259
1577, 603, 253, 617, 624
1578, 852, 603, 624, 586
1579, 852, 633, 640, 632
1580, 624, 253, 617,  38
1581, 614, 271, 618, 272
1582, 245, 571, 843, 246
1583, 816, 621, 822, 823
1584, 272, 253, 617, 614
1585, 613, 270, 619, 271
1586, 376, 128, 375, 324
1587, 668, 613, 239, 270
1588, 243, 528, 262, 242
1589, 822, 268, 269, 237
1590, 830, 240, 250, 552
1591, 822, 237, 615, 268
1592, 825, 621, 719, 823
1593, 822, 620, 668, 269
1594, 825, 622, 621, 615
1595, 822, 538, 237, 525
1596, 790, 636, 627, 628
1597, 686, 267, 234, 616
1598, 828, 255, 586, 254
1599, 828, 623, 616, 266
1600, 846, 626, 625, 617
1601, 616, 266, 623, 267
1602, 828, 266, 255,  38
1603, 828, 624, 254, 586
1604, 727,  37, 256, 265
1605, 648, 575, 649, 600
1606, 843, 571, 593, 258
1607, 727, 600, 256, 594
1608, 801, 649, 227, 487
1609, 644, 631, 639, 630
1610, 578, 456, 601, 709
1611, 641, 264, 610, 230
1612, 609, 637, 641, 264
1613, 727, 639,  37, 265
1614, 637, 609, 263, 264
1615, 753, 113, 590, 595
1616, 727, 610, 256, 231
1617, 584,   6, 331,  77
1618, 803,   3,  59, 297
1619, 712, 456, 467, 455
1620, 640, 256, 594, 727
1621, 691, 295, 821, 287
1622, 817, 529, 244, 539
1623, 641, 609, 264, 230
1624, 763, 363, 362, 360
1625, 229, 244, 539, 817
1626, 818, 263, 244, 262
1627, 628, 525, 543, 528
1628, 418, 419, 650, 651
1629, 818, 636, 262, 528
1630, 720,  93, 681, 488
1631, 790, 636, 262, 635
1632, 790, 510, 242, 528
1633, 791, 551, 249, 553
1634, 790, 553, 793, 510
1635, 791, 249, 551, 248
1636, 140, 398, 141,  87
1637, 852, 603, 593, 571
1638, 727,  37, 640, 256
1639, 792, 550, 846, 551
1640, 257, 256, 594, 640
1641, 851, 625, 843, 852
1642, 402, 664, 797, 136
1643, 761, 762, 276, 530
1644, 247, 845, 843, 549
1645, 632, 594, 640, 593
1646, 644, 641, 230, 642
1647, 816, 637, 636, 628
1648, 837, 300, 299,  57
1649, 138, 400, 139,  88
1650, 709, 160, 414, 413
1651, 594, 687, 640, 727
1652,  38, 254, 624, 253
1653, 514,  32, 492, 235
1654, 398, 347,  87,  88
1655, 839, 804, 303, 811
1656, 652, 698, 605, 569
1657, 614, 846, 548, 851
1658, 463, 605, 210, 462
1659, 682, 229, 489,  30
1660, 142, 397, 396,  86
1661, 744, 604, 566, 568
1662, 701, 699, 321, 679
1663, 702, 334, 333, 323
1664, 748, 324, 376, 335
1665, 748, 390, 389, 378
1666, 675, 565, 563, 566
1667, 670, 770, 745, 746
1668, 748, 378, 389, 377
1669, 677, 695, 771, 404
1670, 691,  97, 592, 573
1671, 675, 570, 771, 379
1672, 656, 665, 657, 696
1673, 794, 178,   4, 177
1674, 606, 572, 303, 589
1675, 827, 368, 114, 120
1676, 796, 319, 589, 179
1677, 748, 335, 334, 324
1678, 795, 587, 589, 588
1679, 700, 604, 581, 582
1680, 748, 799, 377, 376
1681, 745, 569, 561, 562
1682, 652, 462, 745, 569
1683, 806, 569, 462, 210
1684,  32, 492, 236, 514
1685, 805, 561, 806, 556
1686, 805, 806, 461, 209
1687, 374, 325, 335, 324
1688, 605, 582, 463, 211
1689, 688, 774, 690, 342
1690, 602,  75, 329, 328
1691, 852, 586, 593, 603
1692, 687, 600, 594, 599
1693, 649, 575,  29, 600
1694, 610, 641, 230, 644
1695, 644, 727, 231, 610
1696, 209, 154, 408, 407
1697, 644, 687, 639, 631
1698, 648, 233, 574,  31
1699, 128, 375, 324, 127
1700, 154, 153, 407, 209
1701, 834, 835, 849, 534
1702, 671, 839, 811, 445
1703, 828,  38, 624, 266
1704, 648, 574, 575, 599
1705, 642, 649, 720, 487
1706, 704, 602, 370, 122
1707, 671, 811, 303, 302
1708, 804, 304, 303,  53
1709, 421, 409, 460, 410
1710, 776, 579, 577, 369
1711, 805, 407, 153, 209
1712, 121, 577, 369, 122
1713, 577,  76, 579, 330
1714, 521, 343, 344,  91
1715,  78, 598, 584, 838
1716, 757, 357, 289, 290
1717, 768, 522, 536, 535
1718, 827, 773, 368, 584
1719, 772, 774, 342, 331
1720,  77, 331, 584, 579
1721, 757, 758, 598, 838
1722, 288, 756, 296, 289
1723, 128,  70, 127, 324
1724, 256, 231, 600, 727
1725, 130, 377, 841, 799
1726, 460, 208, 207, 156
1727, 404, 746, 696, 405
1728, 642, 231, 487, 230
1729, 210, 463, 211, 605
1730,  38, 253, 617, 272
1731, 756,  96, 592,   2
1732, 592, 756, 296, 288
1733, 591, 598, 756, 758
1734, 758, 595, 590, 591
1735, 386, 335, 374, 336
1736, 691,   9, 358,  98
1737, 618, 272, 617, 614
1738, 708, 507, 840, 542
1739, 756, 591,  96,  95
1740, 812, 288, 280, 590
1741, 787, 332, 343,  92
1742, 490, 232, 800, 574
1743, 840, 521, 542, 541
1744, 756, 296,  46,   2
1745, 748, 388, 335, 376
1746, 710, 412, 159, 413
1747, 598,  95, 757,  78
1748, 773, 330, 579, 331
1749, 773, 331, 584,  78
1750, 756,   2,  95,  96
1751, 753, 365, 273,  45
1752, 781, 778, 283, 291
1753,  75, 329, 577, 602
1754, 799, 324, 128, 376
1755, 706, 123, 371, 370
1756, 827, 120, 114,  13
1757, 813, 111, 112,   1
1758, 704, 328, 602, 329
1759, 798, 674, 799, 560
1760, 772, 774, 688, 342
1761, 799, 557, 128,  70
1762,  54, 453, 189, 811
1763, 318,  65, 819, 440
1764, 798, 674, 560, 568
1765, 737, 306, 743, 305
1766, 677, 746, 696, 404
1767, 405, 770, 151, 404
1768, 796, 589, 311, 572
1769, 274,  44,  45, 365
1770, 763, 285, 277, 286
1771, 189, 453, 188, 811
1772, 757, 290, 778, 357
1773, 770, 150, 151, 404
1774, 671, 447, 811, 302
1775, 829, 282, 273, 274
1776, 715, 749, 716, 351
1777, 746, 670, 653, 650
1778, 364,  43, 275,  44
1779, 770, 555, 559, 562
1780, 675, 564, 567, 565
1781, 809, 275, 284, 283
1782,  59, 737, 764, 297
1783, 808,  43,  42, 276
1784, 689, 392,  14, 116
1785, 746, 770, 555, 405
1786, 703, 701, 679, 700
1787, 770, 555, 405, 151
1788, 677, 770, 404, 771
1789, 698, 604, 569, 566
1790, 762,  42, 277, 276
1791, 811, 189,  54, 302
1792, 744, 566, 563, 568
1793, 809, 530, 276, 531
1794, 808,  42, 762, 276
1795, 670, 745, 650, 746
1796, 152, 555, 405, 406
1797, 722, 504, 506, 501
1798, 711, 710, 458, 457
1799, 160, 709, 731, 578
1800, 779, 778, 291, 782
1801, 710, 601, 205, 457
1802, 819, 796, 319, 311
1803,  58,  59, 298, 737
1804, 196,  25, 764, 742
1805, 766,  19, 765, 162
1806, 762, 119,  41,  42
1807, 763, 286, 277, 278
1808, 765, 596, 588, 177
1809, 794,   4,  60, 177
1810, 795, 305, 743, 313
1811, 366,  40, 278,  41
1812, 691,  98, 355,  97
1813, 698, 605, 569, 604
1814, 440,  65,  64, 317
1815, 731, 734, 414, 733
1816, 278,  41, 277, 366
1817, 149, 695, 133, 660
1818, 178, 589, 320, 179
1819, 853, 183, 182,  22
1820, 813, 111,   1,  39
1821, 803, 606, 304, 587
1822, 737, 742, 764, 743
1823,  51, 820, 293, 354
1824, 763, 363, 360, 361
1825, 750, 395, 143, 144
1826,  59, 764, 195, 803
1827, 750, 395, 144, 394
1828, 731, 712, 455, 456
1829, 739, 454, 196,  25
1830, 709, 159, 601, 578
1831, 304, 606, 303, 589
1832, 145, 146, 519, 393
1833, 580, 455, 454, 202
1834, 756,  46, 296, 289
1835, 654, 107, 367,  40
1836, 310, 301, 672, 302
1837, 732, 580, 455, 454
1838, 745, 561, 555, 562
1839, 753, 280, 758, 590
1840, 756, 758, 288, 592
1841, 777, 134, 149,  18
1842,  15, 771, 379, 132
1843, 798,  69,  70, 323
1844, 675, 566, 564, 565
1845, 675, 558, 570, 379
1846, 820, 821, 294, 286
1847, 752, 301, 452, 302
1848, 670, 745, 770, 673
1849, 770, 567, 564, 559
1850, 771,  15, 147, 132
1851, 702, 333, 322, 323
1852,  44, 115, 826, 364
1853, 558, 131, 570, 379
1854, 772, 330, 776, 773
1855, 771, 567, 404, 147
1856, 829, 282, 778, 290
1857, 841, 378, 558, 379
1858, 127, 374, 324, 126
1859, 775, 774, 807, 780
1860, 808,  43, 276, 275
1861,  68, 322, 608, 581
1862, 798, 324, 323,  70
1863, 674, 560, 568, 563
1864, 674, 560, 563, 554
1865, 748, 323, 798, 324
1866, 799, 377, 376, 129
1867, 799, 554, 841, 130
1868, 374, 126, 373, 325
1869, 820, 285, 294, 293
1870, 652, 698, 700, 605
1871, 700, 698, 604, 605
1872, 671, 445, 811, 447
1873, 699, 698, 744, 604
1874, 691,  98,  97,   9
1875, 697, 700, 652, 698
1876, 700, 582, 585, 464
1877, 320, 311, 319, 589
1878,  67, 678, 321, 585
1879, 657, 670, 653, 696
1880, 812, 590, 813, 607
1881, 812, 691, 295, 592
1882, 785, 679, 701, 332
1883, 699, 604, 608, 581
1884, 582, 212, 585, 464
1885, 666, 673, 674, 744
1886, 390, 747, 748, 389
1887, 464, 211, 463, 582
1888, 146, 689, 519, 392
1889, 691, 358, 355,  98
1890, 678,   5,  27, 585
1891, 804,  53, 453, 193
1892, 828, 687, 586, 599
1893, 357, 290,  47, 289
1894, 801, 576, 227, 575
1895, 233,  31, 232, 574
1896, 778, 291, 782, 290
1897,  80, 690, 353, 768
1898, 801,   5, 227, 576
1899, 684, 255,  31, 599
1900, 687, 586, 599, 594
1901, 624, 603, 254, 586
1902, 600, 644, 648, 687
1903, 642, 644, 649, 231
1904, 792, 846, 832, 618
1905, 671, 310, 302, 311
1906, 851, 603, 571, 253
1907, 828, 255, 254,  38
1908, 843, 258, 259, 612
1909, 611, 845, 260, 248
1910, 793, 249,  34, 553
1911, 791, 626, 792, 627
1912, 668, 270, 239, 269
1913, 375, 335, 324, 374
1914, 820, 285, 286, 294
1915, 553, 510, 552, 241
1916, 851, 614, 252, 548
1917, 843, 593, 844, 258
1918, 790, 510, 552, 553
1919, 760, 366, 108, 363
1920, 793, 510, 241, 242
1921, 452, 447, 302, 189
1922, 793, 611, 242, 249
1923, 846, 551, 550, 548
1924, 522,  81, 519, 353
1925, 792, 552, 550, 553
1926, 851, 245, 549, 548
1927, 691,   2,  97,  52
1928, 791, 846, 845, 551
1929, 832, 251, 614, 252
1930, 843, 612, 247, 258
1931, 757,  78, 357,  79
1932, 668, 269, 620, 270
1933, 846, 549, 551, 548
1934, 753, 826, 273, 365
1935, 843, 845, 633, 625
1936, 253, 617, 614, 851
1937, 189, 447, 302, 811
1938, 552, 241, 510, 240
1939,  47, 289,  46, 357
1940, 385, 336, 374, 373
1941, 829, 281, 282, 290
1942, 830, 240, 239,  33
1943, 290, 778, 357,  47
1944, 353, 768,  81,  80
1945, 851, 245, 548,  35
1946, 851, 614, 253, 252
1947, 851, 548, 252,  35
1948, 851, 625, 852, 617
1949, 262, 790, 635, 242
1950, 686, 615, 234, 267
1951, 292, 101,  50, 293
1952, 511, 362, 363, 109
1953, 641, 719, 609, 229
1954, 668, 239, 543, 238
1955, 722, 508, 751, 504
1956, 751, 541, 508, 547
1957, 547, 218, 759, 484
1958, 747, 390, 401, 389
1959, 354,  50, 293,  51
1960, 387, 376, 375, 335
1961, 751, 541, 547, 520
1962, 140,  88, 399, 398
1963, 655, 754, 759, 501
1964, 655, 722, 501, 759
1965, 664, 402, 797, 747
1966, 416, 693, 428, 417
1967, 650, 670, 653, 652
1968, 834, 741, 849, 307
1969,  52, 295, 691,   2
1970, 428, 655, 658, 509
1971,   6,  78, 598, 584
1972, 141, 397, 142,  86
1973, 495, 754, 759, 831
1974, 754, 500, 501, 493
1975, 840, 345, 542, 344
1976, 740, 162, 427, 415
1977, 655, 509, 176, 497
1978, 743, 313, 305, 314
1979, 810, 512, 191, 201
1980, 842, 545, 512, 532
1981, 783, 784, 285, 761
1982, 185,  20, 534, 834
1983, 850, 740, 738, 741
1984, 362, 110, 109, 511
1985, 126, 373, 325, 125
1986, 442, 850, 163, 164
1987, 803,   3, 297, 304
1988, 760, 761, 762, 277
1989, 740, 163, 162, 443
1990, 795, 312, 304, 305
1991, 293, 544, 292, 101
1992, 544, 102, 292, 101
1993, 765, 795, 743, 313
1994, 803, 795, 304, 297
1995, 819, 180, 796, 444
1996, 708, 499, 507,  89
1997, 760, 277, 763, 761
1998, 661, 507, 499, 502
1999, 797, 708, 661, 747
2000,  58, 736, 299, 450
2001, 314, 315, 741, 442
2002, 443,  60, 313,  61
2003, 806, 209, 210, 462
2004, 661, 507, 502, 504
2005, 126,  71, 125, 325
2006, 797, 136, 137, 402
2007, 837, 532, 200, 533
2008, 789, 520, 521, 541
2009, 795, 588, 596, 587
2010, 788, 217, 547, 485
2011, 742, 583, 597, 596
2012, 737,  59, 298, 297
2013, 819, 310, 311, 319
2014, 524, 789, 486, 216
2015, 302, 189,  54, 452
2016, 719, 229, 817, 609
2017, 672, 447, 449, 446
2018,  26, 849, 537, 523
2019, 795, 305, 313, 312
2020, 310, 309, 672, 301
2021, 795, 320, 312, 313
2022, 799,  70, 128, 324
2023, 805, 806, 209, 556
2024, 835, 533, 527, 532
2025, 843,  36, 247, 246
2026,  54, 811,  53, 453
2027, 810, 301, 300,  56
2028, 385, 336, 373, 337
2029, 671, 839, 796, 311
2030, 810, 752, 309, 301
2031, 793, 242, 241,  34
2032, 790, 830, 543, 668
2033, 853, 448, 512, 192
2034, 851, 846, 617, 614
2035, 816, 818, 529, 528
2036, 446, 310, 819, 318
2037, 672, 310, 318, 309
2038, 672, 448, 446, 449
2039,  30, 229, 244, 539
2040, 671, 311, 819, 310
2041, 845, 248, 612, 260
2042, 818, 529, 528, 243
2043, 318, 317, 853, 309
2044, 373, 326, 372, 337
2045,  28, 486, 216, 524
2046, 302, 301, 452,  55
2047, 683,   8, 524,  28
2048, 787, 802, 786, 679
2049, 524, 343, 521,  91
2050, 729, 734, 427, 426
2051,  55, 452, 302,  54
2052, 836, 849, 736, 307
2053, 671, 447, 446, 444
2054, 738, 197, 739, 465
2055, 842, 512, 810, 532
2056, 804, 193,   3,  53
2057, 804, 304,  53,   3
2058, 850, 834, 442, 741
2059, 375, 127, 374, 324
2060, 835, 300, 308, 299
2061, 811, 453, 188, 839
2062, 476, 523, 226, 518
2063, 752, 449,  24, 191
2064,  56, 810, 532, 300
2065, 833, 527, 185, 184
2066, 747, 400, 346, 388
2067, 732, 455, 466, 454
2068, 200,  56, 201, 532
2069, 836, 736, 450, 299
2070, 834, 835, 315, 307
2071, 303, 311, 312, 589
2072, 795, 312, 320, 589
2073, 671, 819, 311, 796
2074, 833,  63,  62, 315
2075, 839, 311, 303, 572
2076, 833, 834, 534, 835
2077, 181, 440, 446, 819
2078, 849, 523, 534, 537
2079, 833, 316, 835, 527
2080, 729, 518, 516, 438
2081, 516, 438, 167, 724
2082, 738, 736, 849, 741
2083, 516, 518, 477, 225
2084, 814, 106, 105,  11
2085, 763, 286, 278, 847
2086, 810, 452,  55, 201
2087, 540, 478, 516, 724
2088, 711, 413, 424, 412
2089, 836, 849, 534, 537
2090, 833, 316,  63, 315
2091, 438, 439, 729, 518
2092, 373, 125, 372, 326
2093, 589, 311, 312, 320
2094, 518, 225, 476, 477
2095, 477, 225, 224, 516
2096, 724, 728, 438, 437
2097, 810, 301,  56,  55
2098, 493, 754, 495, 174
2099, 759, 547, 751, 508
2100, 651, 430, 754, 429
2101, 797, 496,  88, 138
2102, 447, 671, 445, 444
2103, 839, 572, 796, 311
2104, 804, 811,  53, 303
2105, 179, 319, 441, 796
2106, 444, 671, 445, 796
2107, 671, 310, 672, 302
2108, 664, 499, 494, 502
2109, 459, 410, 157, 411
2110, 402, 797, 747, 401
2111, 659, 504, 503, 506
2112, 794, 320,   4, 178
2113, 664, 502, 494, 498
2114, 840, 542, 507, 541
2115, 708, 797,  88, 346
2116, 795, 304, 297, 305
2117, 125,  72, 124, 326
2118, 517, 351, 546, 715
2119, 709, 159, 160, 413
2120, 570,  15, 379, 131
2121, 749, 349, 395, 383
2122, 102, 692, 544, 292
2123,  43, 364, 275, 808
2124, 835, 316, 307, 308
2125, 808, 809, 276, 531
2126, 808, 762,  42, 118
2127, 762, 118, 530, 119
2128, 689, 775, 392, 769
2129, 768,  80, 779,   7
2130, 835, 534, 527, 533
2131, 767, 275, 283, 274
2132, 526, 536, 781, 103
2133, 767, 781, 283, 809
2134, 779,  48, 356, 782
2135, 838, 595, 598, 584
2136, 784, 544, 101, 511
2137, 837, 300,  57,  56
2138, 318,  66, 319, 441
2139,  80,  81,   7, 768
2140, 826, 365, 274, 273
2141, 544, 692, 284, 292
2142, 779, 291, 781, 103
2143, 580, 414, 160, 161
2144, 517,  82,  83, 352
2145, 713, 716, 688, 352
2146, 819, 446, 181, 180
2147, 796, 819, 444, 671
2148, 713, 145, 519, 393
2149, 838, 773,  78, 774
2150, 765, 743, 443, 313
2151, 777, 403, 660, 134
2152, 777, 660, 149, 134
2153, 695, 133, 771, 148
2154, 815, 218, 483, 484
2155, 729, 438, 427, 439
2156, 139, 140,  88, 399
2157, 754, 497, 493, 501
2158, 500, 495, 759, 218
2159, 794, 313,  60, 320
2160, 826, 827, 807, 114
2161, 497, 754, 429, 655
2162, 175, 497, 754, 429
2163, 659, 509, 506, 503
2164, 353, 352,  82, 688
2165, 754, 174, 493, 175
2166, 797, 499, 496, 494
2167, 788, 751, 547, 520
2168, 442,  62,  61, 314
2169, 498, 403, 136, 402
2170, 655, 506, 497, 501
2171, 659, 502, 498, 503
2172, 809, 284, 692, 283
2173, 784,  10, 101, 100
2174, 853, 309, 448, 318
2175, 498, 403, 505, 135
2176, 659, 505, 498, 403
2177, 735, 739, 738, 197
2178, 745, 698, 562, 673
2179, 797, 346, 400,  88
2180, 317, 545, 316, 183
2181, 783, 285, 784, 293
2182, 666, 748, 674, 676
2183, 659, 694, 498, 664
2184, 701, 333, 343, 332
2185, 176, 655, 429, 428
2186, 833, 184,  63, 316
2187, 789, 521, 343, 344
2188,   4, 179, 319,  66
2189, 461, 460, 472, 409
2190, 440,  65, 819, 181
2191, 797, 494, 496, 137
2192, 788, 520, 216, 789
2193, 788, 520, 547, 217
2194, 660, 505, 659, 403
2195, 797, 402, 137, 401
2196, 565, 558, 675, 563
2197, 443,  61, 313, 314
2198, 653, 651, 693, 417
2199, 777, 135, 403, 134
2200, 817, 719, 823, 717
2201, 815, 218, 219, 483
2202, 374, 373, 336, 325
2203, 840, 789, 701, 344
2204, 785, 701, 343, 332
2205, 788, 485, 486, 216
2206, 492, 515, 236, 514
2207, 489, 228, 683, 682
2208, 653, 721, 651, 473
2209, 486, 703, 475, 474
2210,  28, 215, 515, 236
2211, 705, 370, 706, 371
2212, 680, 515, 683, 215
2213, 824, 538, 514,  32
2214, 717, 513, 514, 538
2215, 656, 694, 663, 669
2216,  94,   5, 678,  67
2217, 489, 228,  92, 683
2218, 593, 640, 257, 594
2219,   8, 515, 683, 228
2220, 720, 214, 213, 491
2221, 816, 529, 823, 525
2222,  67, 581, 321,  68
2223, 817, 719, 609, 637
2224, 679, 321, 585, 581
2225, 680, 515, 514, 513
2226, 645, 641, 642, 643
2227, 372, 124, 327, 326
2228, 718, 824, 825, 717
2229, 647, 646, 686, 718
2230, 608,  68,  69, 322
2231, 620, 525, 816, 822
2232, 685, 631, 622, 623
2233, 474, 788, 486, 703
2234, 680, 514, 824, 717
2235, 717, 229,  30, 539
2236, 817, 244, 609, 229
2237, 216, 789, 486, 788
2238,  68, 581, 321, 322
2239, 817, 244, 818, 263
2240, 701, 333, 332, 322
2241, 492, 235, 680, 514
2242, 678,  27,   5, 576
2243, 621, 719, 823, 629
2244, 646, 234, 490, 233
2245, 621, 825, 719, 622
2246, 644, 639, 638, 630
2247, 127,  70, 126, 324
2248, 679, 699, 321, 581
2249, 637, 641, 264, 638
2250, 648, 574, 576, 575
2251, 785, 475, 787, 486
2252, 788, 486, 485, 474
2253, 646, 491, 490, 234
2254, 702, 608, 568, 323
2255, 213, 490,  27, 800
2256, 322,  69, 608, 323
2257, 787, 681, 215, 214
2258, 681, 491, 492, 214
2259, 785, 789, 524, 343
2260, 228, 683, 682, 515
2261, 683, 215, 515,  28
2262, 791, 634, 635, 611
2263, 681, 489, 488,  93
2264, 799, 557, 554, 129
2265, 642, 643, 720, 646
2266, 649, 227, 487, 231
2267, 720, 488, 487,  94
2268, 719, 823, 629, 637
2269, 373, 337, 336, 326
2270, 748, 324, 334, 323
2271, 799, 129, 376, 128
2272, 258, 257, 844,  37
2273, 682, 230, 488, 229
2274, 682, 228,  30, 489
2275, 649, 575, 227,  29
2276, 373, 326, 325, 125
2277, 822, 237, 238, 525
2278, 787, 681,  93,  92
2279, 816, 628, 620, 629
2280, 685, 623, 687, 631
2281, 701, 343, 333, 344
2282, 374, 325, 324, 126
2283, 705, 382, 707, 370
2284, 723, 344, 334, 345
2285, 219, 220, 171, 482
2286, 756,  95,  46, 357
2287, 220, 481, 170, 434
2288, 124,  72,  73, 326
2289, 220, 221, 170, 481
2290, 221, 481, 480, 435
2291, 839, 186, 445, 796
2292, 221, 481, 435, 170
2293,  73, 371, 124, 327
2294, 725, 436, 726, 437
2295, 516, 518, 166, 438
2296, 831, 754, 651, 430
2297, 374, 335, 325, 336
2298, 612, 845, 260, 633
2299, 787, 215, 475, 214
2300, 648, 576, 574, 800
2301, 831, 495, 173, 219
2302, 547, 485, 217, 484
2303, 651, 484, 815, 483
2304, 788, 217, 216, 520
2305, 643, 681, 682, 488
2306, 460, 421, 471, 472
2307, 787, 215, 486, 475
2308, 706,  74, 327,  73
2309, 385, 348, 347, 337
2310, 771, 567,  15, 570
2311, 217, 484, 218, 547
2312, 339, 705, 338, 749
2313, 124,  73, 327, 326
2314, 172, 482, 219, 171
2315, 483, 482, 219, 172
2316, 481, 423, 470, 469
2317, 221, 435, 480, 169
2318, 221, 222, 169, 480
2319, 482, 483, 432, 172
2320, 602,  75, 328,  74
2321, 725, 540, 223, 168
2322, 481, 170, 434, 435
2323, 758, 590, 280, 288
2324, 724, 540, 478, 479
2325, 726, 468, 479, 467
2326, 711, 728, 726, 425
2327, 436, 725, 222, 168
2328, 125, 124, 372, 326
2329, 540, 224, 478, 223
2330, 365, 274, 273,  45
2331, 371, 706, 705, 327
2332, 708, 346,  89, 345
2333, 198, 523, 226, 476
2334, 776, 380, 368, 369
2335, 729, 728, 426, 438
2336, 738, 198, 197, 476
2337, 705, 340, 339, 329
2338, 518, 225, 226, 476
2339, 775, 807, 368, 380
2340, 688, 522, 519, 353
2341, 829, 273, 282, 281
2342, 289, 281, 757, 290
2343, 732, 755, 734, 733
2344, 579, 369, 368, 121
2345, 718, 235, 492, 491
2346, 486, 215, 524,  28
2347, 343, 787,  92, 524
2348, 690,  79, 353, 342
2349, 707, 341, 340, 330
2350, 577, 330, 329,  76
2351, 579,  76,  77, 330
2352, 364, 115, 826, 780
2353, 753, 114, 365, 113
2354, 642, 487, 488, 230
2355, 802, 679,  93,  94
2356, 708, 723, 345, 840
2357, 721, 485, 484, 473
2358, 651, 484, 483, 472
2359, 651, 419, 650, 472
2360, 651, 431, 472, 483
2361, 795, 597, 742, 764
2362, 303, 589, 312, 304
2363, 219, 483, 172, 173
2364, 720, 491, 213, 490
2365, 757, 289, 758, 281
2366, 113, 827,  13, 595
2367, 421, 432, 433, 471
2368, 472, 409, 460, 421
2369, 650, 419, 407, 472
2370, 471, 483, 432, 482
2371, 471, 460, 459, 410
2372, 753, 365,  45, 113
2373, 410, 421, 471, 460
2374, 758, 289, 288, 281
2375, 470, 422, 434, 482
2376, 794, 588, 178, 177
2377, 778, 291, 282, 283
2378, 481, 469, 435, 423
2379, 481, 480, 435, 469
2380, 772, 341, 331, 342
2381, 774,  78, 342, 331
2382, 357, 289, 756, 757
2383, 778, 690, 774,  79
2384, 584,  78, 331,   6
2385, 791, 626, 635, 634
2386, 436, 725, 726, 480
2387, 652, 700, 703, 463
2388, 482, 422, 434, 433
2389, 805, 209, 461, 407
2390, 651, 472, 431, 419
2391, 791, 551, 845, 248
2392, 406, 746, 417, 650
2393, 652, 474, 721, 473
2394, 542, 344, 345,  90
2395, 787, 332,  92,  93
2396, 481, 470, 423, 434
2397, 569, 652, 462, 605
2398, 751, 504, 508, 541
2399, 472, 432, 420, 421
2400, 659, 503, 504, 502
2401, 792, 830, 619, 613
2402, 412, 711, 710, 458
2403, 671, 311, 302, 303
2404, 724, 728, 726, 478
2405, 851, 549, 843, 846
2406, 711, 412, 469, 458
2407, 709, 711, 712, 456
2408, 481, 482, 470, 434
2409, 516, 477, 478, 224
2410, 373, 326, 336, 325
2411, 729, 848, 477, 518
2412, 167, 724, 725, 540
2413, 712, 467, 466, 455
2414, 384, 338, 349, 348
2415, 724, 478, 516, 477
2416, 385, 347, 336, 337
2417, 738, 736, 197, 198
2418, 747, 334, 335, 345
2419,  94,  67, 678, 321
2420, 576, 232, 800,  27
2421, 572, 303, 589, 311
2422, 785, 524, 789, 486
2423, 372, 327, 337, 326
2424, 787, 475, 786, 214
2425, 386, 346, 335, 336
2426, 574, 233, 490, 232
2427, 371, 706,  73, 123
2428, 646, 800, 574, 490
2429, 770, 673, 562, 564
2430,  27, 213, 678, 212
2431, 682, 488, 489, 229
2432, 679,  94, 321,  93
2433, 705, 329, 339, 328
2434, 372, 327, 371, 338
2435, 749, 394, 382, 383
2436, 703, 464, 786, 475
2437, 703, 464, 475, 463
2438, 802, 786, 213, 214
2439, 650, 418, 406, 407
2440, 749, 339, 350, 349
2441, 786, 679, 678, 464
2442, 700, 463, 582, 464
2443, 582, 212, 464, 211
2444, 801, 678,   5, 576
2445, 705, 339, 338, 328
2446, 646, 490, 574, 233
2447, 521, 542,  90, 344
2448, 579, 368, 120, 121
2449, 579, 331, 330,  77
2450, 688, 341, 342, 352
2451, 707, 330, 340, 329
2452, 838,  78, 773, 584
2453, 695, 696, 416, 404
2454, 666, 747, 663, 723
2455, 678, 464, 679, 585
2456, 650, 417, 406, 418
2457, 769, 115, 116, 364
2458, 483, 472, 432, 431
2459, 843, 259, 844, 633
2460, 786, 213, 214, 464
2461, 720,  94, 802,  93
2462, 583, 580, 454, 202
2463, 681,  92, 489,  93
2464, 799, 130, 377, 129
2465, 753, 829, 758, 273
2466, 768, 767, 781, 780
2467, 769, 380, 116, 115
2468, 786, 464, 214, 475
2469,   5, 678,  67, 585
2470, 789, 343, 521, 524
2471, 673, 564, 566, 562
2472, 524,  92, 343,   8
2473, 698, 562, 566, 569
2474, 801, 227,   5, 487
2475, 708, 345,  89, 542
2476, 653, 696, 746, 417
2477, 747, 345, 335, 346
2478, 715, 750, 144, 394
2479, 703, 475, 474, 463
2480, 652, 462, 463, 474
2481, 208, 408, 209, 155
2482, 208, 409, 155, 156
2483, 723, 333, 334, 344
2484, 524,   8, 343,  91
2485, 408, 409, 208, 461
2486, 471, 410, 459, 422
2487, 471, 470, 422, 459
2488, 384, 338, 348, 337
2489, 408, 461, 209, 407
2490, 720, 802, 213, 214
2491, 148, 149, 695, 133
2492, 471, 422, 421, 410
2493, 470, 411, 458, 423
2494, 521,  91, 344,  90
2495, 470, 469, 423, 458
2496, 711, 457, 458, 469
2497, 691, 355,  52,  97
2498, 459, 206, 458, 411
2499, 705, 338, 383, 371
2500, 126, 325, 324,  71
2501, 542,  90, 345,  89
2502, 397, 347, 348,  87
2503, 726, 436, 480, 424
2504, 460, 459, 410, 207
2505, 424, 436, 480, 435
2506, 458, 158, 411, 206
2507, 601, 457, 204, 205
2508, 710, 457, 205, 458
2509, 383, 371, 338, 372
2510, 716, 393, 381, 382
2511, 397,  87, 348,  86
2512, 716, 341, 351, 340
2513, 688, 342, 353, 352
2514, 705, 371, 382, 370
2515, 711, 413, 712, 425
2516, 728, 477, 466, 478
2517, 710, 158, 206, 205
2518, 715, 749, 350, 750
2519, 714, 392, 380, 381
2520, 460, 410, 409, 156
2521, 749, 351, 350, 340
2522, 704, 369, 776, 577
2523, 715, 145, 394, 144
2524, 546,  84, 350, 351
2525, 156, 460, 208, 409
2526, 459, 206, 411, 157
2527, 778,  80, 690,  79
2528, 470, 459, 458, 411
2529, 713, 688, 519,  82
2530, 729, 516, 518, 477
2531, 711, 712, 456, 467
2532, 459, 157, 207, 206
2533, 456, 578, 203, 455
2534, 445, 811, 447, 189
2535, 776, 577, 579, 330
2536, 769, 380, 392, 116
2537, 779, 781, 291, 778
2538, 423, 469, 424, 412
2539, 580, 203, 455, 202
2540, 755, 465, 466, 477
2541, 738, 197, 465, 476
2542, 601, 456, 204, 457
2543, 526, 102, 692, 544
2544, 398, 347,  88, 346
2545, 712, 734, 426, 414
2546, 711, 712, 467, 728
2547, 215, 515, 236, 492
2548, 414, 160, 709, 731
2549, 837, 199, 200,  56
2550, 717, 682, 229, 719
2551, 797, 401, 138, 400
2552, 847, 654, 814, 279
2553, 834, 185, 164, 442
2554, 126,  70,  71, 324
2555, 739, 465, 197, 196
2556, 743, 443, 313, 314
2557, 516, 724, 477, 729
2558, 737, 197,  58, 451
2559, 737, 197, 451, 196
2560, 755, 848, 734, 733
2561, 198,  26, 226, 523
2562, 518, 523, 165, 439
2563, 750, 546, 143,  84
2564, 709, 456, 731, 578
2565, 157, 158, 206, 411
2566, 750, 546,  84, 350
2567, 366, 107, 278,  40
2568, 415, 414, 733, 580
2569, 795, 589, 320, 588
2570, 771, 148, 132, 147
2571, 764, 196, 195,  25
2572, 578, 731, 455, 456
2573, 733, 161, 415, 580
2574, 763, 366, 361, 278
2575, 766, 162, 415,  19
2576, 836, 736, 849, 198
2577, 145, 715, 713, 517
2578, 734, 426, 414, 415
2579, 848, 850, 439, 427
2580, 836, 537, 199,  26
2581, 517, 352,  83, 351
2582, 456, 204, 203, 578
2583, 730, 164,  20, 165
2584, 396,  86, 349,  85
2585, 298,  58, 736, 299
2586, 301, 672, 302, 752
2587, 752, 810, 452, 301
2588, 752, 449, 447, 190
2589, 839, 188, 187,  23
2590,  82, 688, 519, 353
2591, 767, 116, 117, 364
2592, 853, 183, 192, 512
2593, 713, 393, 519, 392
2594, 752, 449, 190,  24
2595, 844, 257, 640,  37
2596, 763, 363, 361, 366
2597, 278, 107, 654,  40
2598, 833, 534, 185, 527
2599, 143, 750, 349, 395
2600, 752, 452, 810, 190
2601, 810, 191,  24, 201
2602, 546, 715, 750, 144
2603, 810, 201,  24, 190
2604, 752, 449, 672, 447
2605, 853, 182, 183, 440
2606, 853, 440, 448, 182
2607, 512, 192, 448, 191
2608, 440, 448, 182, 181
2609, 187, 186, 445, 839
2610, 803, 804, 606, 194
2611, 777, 509, 505,  16
2612, 839, 303, 606, 572
2613,  81,  82, 519, 353
2614, 405, 746, 696, 417
2615, 796, 180, 441, 179
2616, 316, 183, 184,  63
2617, 821, 355, 294, 295
2618, 125, 326, 325,  72
2619, 821, 847, 287, 286
2620, 819, 318, 441,  65
2621, 671, 839, 303, 811
2622, 651, 417, 418, 429
2623, 839, 804, 453, 193
2624, 588, 589, 320, 178
2625, 598,  78,   6,  95
2626, 749, 350, 339, 340
2627, 796, 186,  21, 179
2628, 819, 441, 180, 181
2629, 764, 587, 597, 195
2630, 794, 765, 443, 313
2631,  66, 179, 319, 441
2632, 765, 794, 795, 313
2633, 779,   7,  80, 103
2634, 122, 123, 602, 370
2635, 318, 672, 446, 310
2636, 819, 319, 441, 318
2637, 441,  65, 318,  66
2638, 317, 183, 440, 853
2639, 749, 383, 395, 394
2640, 755, 465, 477, 476
2641, 761, 276, 277, 285
2642, 809, 531, 535, 526
2643, 761, 530, 276, 284
2644, 784, 511, 110, 362
2645, 294,  51, 820, 293
2646,  49, 291, 103, 292
2647, 836, 450, 736, 198
2648, 763, 761, 277, 285
2649, 704, 122, 370, 369
2650, 301, 300, 309, 810
2651, 532, 842, 308, 300
2652, 294,  51,  52, 355
2653, 834, 835, 307, 849
2654, 783, 544, 784, 511
2655, 853, 842, 512, 309
2656, 736, 741, 306, 307
2657, 355, 294, 295,  52
2658, 105, 814, 691, 359
2659, 814, 287, 821, 847
2660, 573, 105, 814, 691
2661, 738, 736, 198, 849
2662, 820, 286, 763, 821
2663, 834,  20, 164, 185
2664, 760, 366, 763, 277
2665, 833, 527, 835, 534
2666, 289, 758, 288, 756
2667, 315, 741, 442, 834
2668, 295, 296, 592,   2
2669, 691, 104,   9,  97
2670, 583, 733, 732, 580
2671, 795, 304, 312, 589
2672, 795, 596, 597, 587
2673, 735, 736, 741, 306
2674, 691, 105, 359, 104
2675, 737, 298, 736, 306
2676, 443, 794,  60, 177
2677, 360, 355,  98,  99
2678, 443, 314, 163,  61
2679, 765, 162,  19, 177
2680, 756, 591,  95, 598
2681, 834, 730, 164,  20
2682, 188, 811, 445, 189
2683, 836, 198, 199, 450
2684, 518, 166, 439, 165
2685, 836,  26, 199, 198
2686, 725, 168, 437, 167
2687, 518, 166, 438, 439
2688, 540, 478, 479, 223
2689, 726, 480, 479, 468
2690, 221, 169, 170, 435
2691, 220, 171, 434, 170
2692, 812, 287, 814, 279
2693, 435, 436, 480, 169
2694, 359, 654, 107, 367
2695, 814, 813, 367, 111
2696, 171, 433, 172, 482
2697, 220, 434, 482, 481
2698, 173, 483, 172, 432
2699, 831, 174, 431, 173
2700, 831, 430, 651, 431
2701, 814,  11, 105, 111
2702, 821, 361, 360, 358
2703, 725, 480, 222, 479
2704, 434, 482, 433, 171
2705, 721, 474, 485, 473
2706, 174, 430, 754, 831
2707, 497, 176, 429, 175
2708, 442, 833,  62, 315
2709,  61, 314, 163, 442
2710, 735, 197, 737, 739
2711, 761, 763, 362, 285
2712, 820, 763, 362, 360
2713, 736, 307, 306, 298
2714, 532,  56, 837, 200
2715, 821, 286, 295, 294
2716, 812, 280, 288, 279
2717, 355,  99, 820,  51
2718, 360,  99, 820, 355
2719, 691,  52, 355, 295
2720, 724, 167, 437, 438
2721, 821, 360, 355, 358
2722, 726, 436, 425, 437
2723, 435, 424, 469, 480
2724, 732, 455, 712, 466
2725, 725, 437, 168, 436
2726, 481, 434, 423, 435
2727, 469, 424, 435, 423
2728, 725, 223, 222, 168
2729, 809, 276, 284, 275
2730, 432, 472, 471, 421
2731, 446, 671, 819, 310
2732, 700, 585, 679, 464
2733,  49, 101,  50, 292
2734, 652, 474, 473, 462
2735, 472, 431, 420, 432
2736, 651, 430, 419, 431
2737, 106, 367, 359, 107
2738, 472, 431, 419, 420
2739, 813,  39, 367, 111
2740, 763, 761, 362, 363
2741, 485, 788, 721, 547
2742, 744, 673, 563, 566
2743, 726, 425, 436, 424
2744, 814, 847, 279, 287
2745, 831, 431, 174, 430
2746, 651, 419, 430, 418
2747, 651, 429, 418, 430
2748, 361, 359, 654, 107
2749, 691, 358, 104, 359
2750, 172, 482, 433, 432
2751, 693, 428, 417, 429
2752, 431, 173, 483, 831
2753, 784, 101, 110, 511
2754, 839, 453, 188, 193
2755, 836, 835, 534, 849
2756, 837, 835, 532, 533
2757, 743, 314, 305, 306
2758, 812, 288, 287, 279
2759, 836, 837,  57, 199
2760, 814, 106, 359, 105
2761, 741, 850, 163, 442
2762,  56, 201, 532, 810
2763, 712, 425, 414, 426
2764, 360, 358,  98, 355
2765,  57, 299, 450,  58
2766, 762, 119, 366,  41
2767, 712, 414, 425, 413
2768, 734, 426, 415, 427
2769, 820, 354,  99, 100
2770, 158, 710, 458, 412
2771, 691, 358, 821, 355
2772, 820, 362,  99, 360
2773, 470, 459, 411, 422
2774, 278, 847, 279, 654
2775, 470, 422, 423, 434
2776, 816, 629, 637, 628
2777, 470, 423, 422, 411
2778, 711, 413, 425, 424
2779, 763, 821, 847, 361
2780, 459, 411, 422, 410
2781, 472, 408, 461, 409
2782, 433, 471, 482, 422
2783, 658, 509, 660, 428
2784, 704, 370, 707, 369
2785, 432, 482, 433, 471
2786, 364, 275, 274,  44
2787, 784, 362, 110, 100
2788, 512, 448, 309, 752
2789, 361, 366, 107, 278
2790, 408, 420, 472, 419
2791, 752, 448, 191, 512
2792, 472, 407, 461, 408
2793, 760, 363, 108,  12
2794, 853,  22, 192, 183
2795, 300, 842, 308, 309
2796, 650, 406, 805, 407
2797, 650, 407, 461, 472
2798, 784, 100, 101, 354
2799, 763, 278, 277, 366
2800, 408, 419, 472, 407
2801, 761, 119, 530, 511
2802, 497, 176, 655, 429
2803, 409, 420, 472, 408
2804, 509, 428, 176,  18
2805, 429, 430, 754, 175
2806, 650, 473, 461, 462
2807, 664, 498, 136, 402
2808, 808, 531, 762, 118
2809, 628, 620, 525, 816
2810, 509, 428,  18, 149
2811,  65, 318, 317, 440
2812, 853, 545, 317, 183
2813, 498, 135, 136, 403
2814, 313, 794,  60, 443
2815, 317, 316,  64, 183
2816, 729, 426, 427, 438
2817, 671, 839, 311, 303
2818, 743, 314, 740, 443
2819, 764, 195, 196, 451
2820, 737, 743, 764, 305
2821, 842, 308, 309, 317
2822, 361, 278, 107, 654
2823, 842, 532, 527, 545
2824, 766, 415, 161,  19
2825, 813, 280, 279,  39
2826, 803, 194, 195,   3
2827, 796, 444, 180,  21
2828, 814, 111, 367, 106
2829, 737, 305, 297, 306
2830, 168, 436, 169, 222
2831, 814, 821, 691, 359
2832, 740, 163, 741, 850
2833, 593, 844, 257, 640
2834, 765, 162, 177, 443
2835, 760, 363,  12, 109
2836, 839, 445, 187, 188
2837, 366, 108, 361, 107
2838, 366, 361, 108, 363
2839, 783, 511, 530, 544
2840, 451,  59, 764, 195
2841, 512, 309, 448, 853
2842, 307, 834, 741, 315
2843, 102, 292, 101,  49
2844, 808, 117,  42,  43
2845, 320, 179,   4, 178
2846, 728, 438, 437, 426
2847, 804, 193, 194,   3
2848, 314, 740, 443, 163
2849, 736, 298, 299, 307
2850, 771, 391, 379, 132
2851, 780, 364, 274, 826
2852,  17, 147, 567,  15
2853, 689, 769, 116, 767
2854, 836, 299, 450,  57
2855, 728, 437, 425, 426
2856, 808, 809, 767, 275
2857, 767, 781, 809, 535
2858, 777,  16, 135, 134
2859, 690,  80, 353,  79
2860, 829, 778, 780, 774
2861, 442,  62, 314, 315
2862, 850, 427, 163, 439
2863, 774,  78,  79, 342
2864, 710, 158, 159, 412
2865, 372, 371, 327, 124
2866, 836, 307, 835, 849
2867, 114, 827,  13, 113
2868, 711, 457, 469, 468
2869, 483, 472, 471, 432
2870, 459, 207, 157, 410
2871, 810, 532, 512, 201
2872, 705, 707, 340, 329
2873, 753,  45,   1, 113
2874, 753, 273, 826, 829
2875, 706, 328, 327,  74
2876, 710, 158, 205, 601
2877, 469, 458, 412, 423
2878, 207, 157, 410, 156
2879, 458, 412, 423, 411
2880, 428, 660, 695, 149
2881, 733, 740, 738, 848
2882, 737, 764, 196, 451
2883, 710, 205, 206, 458
2884, 689, 146,  14, 392
2885, 732, 739, 454, 465
2886, 711, 726, 468, 469
2887, 737, 306, 297, 298
2888, 835, 307, 299, 308
2889, 416, 695, 404, 148
2890, 155, 409, 208, 408
2891, 848, 518, 476, 477
2892, 826, 115, 365, 114
2893, 826, 274, 365,  44
2894, 209, 155, 408, 154
2895, 472, 409, 421, 420
2896, 749, 349, 338, 339
2897, 753, 114, 826, 365
2898, 460, 156, 207, 410
2899, 546,  83,  84, 351
2900, 750,  85, 349, 350
2901, 808, 762, 531, 276
2902, 808, 117, 118,  42
2903, 650, 418, 407, 419
2904, 805, 407, 406, 153
2905, 777, 134,  18,  16
2906, 461, 408, 209, 208
2907, 700, 581, 679, 585
2908, 672, 318, 448, 309
2909, 282, 274, 829, 780
2910, 482, 220, 171, 434
2911, 577,  76, 329,  75
2912, 679, 321, 332,  93
2913, 771, 404, 148, 147
2914, 805, 555, 556, 152
2915, 805, 153, 152, 556
2916, 807, 368, 115, 114
2917, 579, 584, 120, 368
2918, 422, 471, 482, 470
2919, 707, 381, 369, 370
2920, 714, 381, 707, 716
2921, 577, 369, 579, 121
2922, 164, 834, 442, 850
2923, 701, 332, 679, 321
2924, 702, 323, 322, 608
2925, 701, 321, 322, 332
2926, 151, 152, 555, 405
2927, 208, 460, 461, 409
2928, 803, 195,  59,   3
2929, 147, 567,  15, 771
2930, 567, 150, 404, 147
2931, 689, 768, 767, 535
2932, 558, 379, 378, 131
2933, 713,  82, 517, 352
2934, 558, 131, 378, 130
2935, 688, 775, 392, 689
2936, 807, 380, 115, 368
2937, 716, 341, 352, 351
2938, 713, 517, 351, 352
2939, 706, 123, 602,  74
2940, 372, 338, 337, 327
*Nset, nset=AllCells, generate
   1,  853,    1
*Elset, elset=AllCells, generate
    1,  2940,     1
** Section: SolidSection
*Solid Section, elset=AllCells, material=IN718
,
*End Part
**  
**
** ASSEMBLY
**
*Assembly, name=Assembly
**  
*Instance, name=TO_Specimen-1, part=TO_Specimen
*End Instance
**  
*Node
      1,           0.,   132.169998,         12.5
*Nset, nset=LowerLeftPinHole, instance=TO_Specimen-1
   3,   4,  53,  54,  55,  56,  57,  58,  59,  60,  61,  62,  63,  64,  65,  66
 297, 298, 299, 300, 301, 302, 303, 304, 305, 306, 307, 308, 309, 310, 311, 312
 313, 314, 315, 316, 317, 318, 319, 320
*Elset, elset=LowerLeftPinHole, instance=TO_Specimen-1
  400,  405,  435,  729,  730,  820, 1023, 1387, 1424, 1432, 1618, 1648, 1708, 1803, 1814, 1836
 1877, 1905, 1978, 1987, 1990, 2002, 2012, 2013, 2019, 2020, 2021, 2027, 2037, 2043, 2046, 2051
 2057, 2060, 2071, 2074, 2090, 2093, 2097, 2116, 2124, 2137, 2138, 2159, 2168, 2188, 2197, 2362
 2403, 2585, 2637, 2650, 2713, 2757, 2765, 2795, 2811, 2815, 2821, 2829, 2849, 2861, 2887, 2888
*Nset, nset=LowerRightPinHole, instance=TO_Specimen-1
   1,   2,  39,  40,  41,  42,  43,  44,  45,  46,  47,  48,  49,  50,  51,  52
 273, 274, 275, 276, 277, 278, 279, 280, 281, 282, 283, 284, 285, 286, 287, 288
 289, 290, 291, 292, 293, 294, 295, 296
*Elset, elset=LowerRightPinHole, instance=TO_Specimen-1
   15,  182,  275,  413,  517,  775, 1114, 1253, 1274, 1280, 1397, 1404, 1408, 1410, 1412, 1417
 1422, 1446, 1449, 1481, 1492, 1494, 1497, 1722, 1744, 1769, 1770, 1775, 1778, 1781, 1783, 1790
 1807, 1811, 1816, 1834, 1860, 1869, 1893, 1914, 1939, 1941, 1951, 1959, 1969, 2131, 2330, 2341
 2342, 2374, 2377, 2641, 2645, 2646, 2652, 2657, 2668, 2715, 2716, 2729, 2733, 2758, 2786, 2825
*Nset, nset=UpperPinHole, instance=TO_Specimen-1
  37,  38, 259, 260, 261, 262, 263, 264, 265, 266, 267, 268, 269, 270, 271, 272
 617, 618, 619, 620, 621, 622, 623, 624, 625, 626, 627, 628, 629, 630, 631, 632
 633, 634, 635, 636, 637, 638, 639, 640
*Elset, elset=UpperPinHole, instance=TO_Specimen-1
   17,  118,  176,  212,  290,  428,  626,  654,  690,  719,  748,  918, 1148, 1161, 1237, 1240
 1243, 1246, 1317, 1403, 1431, 1464, 1473, 1504, 1513, 1516, 1522, 1533, 1536, 1537, 1538, 1539
 1540, 1545, 1550, 1552, 1553, 1558, 1560, 1561, 1563, 1576, 1579, 1580, 1581, 1585, 1596, 1600
 1601, 1609, 1613, 1614, 1631, 1647, 1703, 1730, 1737, 1932, 2232, 2246, 2249, 2279, 2385, 2776
*Nset, nset=UpperRP
 1,
*Elset, elset=_UpperPinSurface_S4, internal, instance=TO_Specimen-1
   17,  212,  290, 1560, 1576, 1580, 1614, 1730, 2249
*Elset, elset=_UpperPinSurface_S3, internal, instance=TO_Specimen-1
  118,  176,  428,  626,  654,  690,  719,  748,  918, 1148, 1237, 1240, 1243, 1246, 1317, 1403
 1431, 1464, 1473, 1504, 1513, 1522, 1533, 1536, 1537, 1538, 1539, 1545, 1552, 1561, 1579, 1581
 1585, 1596, 1600, 1601, 1609, 1613, 1631, 1647, 1703, 1932, 2232, 2246, 2279, 2385, 2776
*Elset, elset=_UpperPinSurface_S1, internal, instance=TO_Specimen-1
 1161, 1553, 1558, 1737
*Elset, elset=_UpperPinSurface_S2, internal, instance=TO_Specimen-1
 1516, 1540, 1550, 1563
*Surface, type=ELEMENT, name=UpperPinSurface
_UpperPinSurface_S4, S4
_UpperPinSurface_S3, S3
_UpperPinSurface_S2, S2
_UpperPinSurface_S1, S1
** Constraint: UpperPinCoupling
*Coupling, constraint name=UpperPinCoupling, ref node=UpperRP, surface=UpperPinSurface
*Kinematic
*End Assembly
** 
** MATERIALS
** 
*Material, name=IN718
*Density
 8.19e-09,
*Elastic
200000., 0.3
*Plastic
 980.,   0.
1100., 0.05
1241.,  0.1
** 
** BOUNDARY CONDITIONS
** 
** Name: LowerLeftPin_BC Type: Displacement/Rotation
*Boundary
LowerLeftPinHole, 2, 2
LowerLeftPinHole, 3, 3
** Name: LowerRightPin_BC Type: Displacement/Rotation
*Boundary
LowerRightPinHole, 2, 2
LowerRightPinHole, 3, 3
** ----------------------------------------------------------------
** 
** STEP: FatigueTest
** 
*Step, name=FatigueTest, nlgeom=YES
*Static
0.1, 1., 1e-08, 1.
** 
** LOADS
** 
** Name: VerticalLoad_100kN   Type: Concentrated force
*Cload
UpperRP, 2, 100000.
** 
** OUTPUT REQUESTS
** 
*Restart, write, frequency=0
** 
** FIELD OUTPUT: F-Output-1
** 
*Output, field
*Node Output
RF, U
*Element Output, directions=YES
E, PE, PEEQ, S
** 
** HISTORY OUTPUT: H-Output-1
** 
*Output, history, variable=PRESELECT
*End Step
