*Heading
** Job name: Block_Fallback Model name: Model-1
** Generated by: Abaqus/CAE 2025
*Preprint, echo=NO, model=NO, history=NO, contact=NO
**
** PARTS
**
*Part, name=Block
*Node
      1,         100.,          40.,          20.
      2,         100.,          35.,          20.
      3,         100.,          30.,          20.
      4,         100.,          25.,          20.
      5,         100.,          20.,          20.
      6,         100.,          15.,          20.
      7,         100.,          10.,          20.
      8,         100.,           5.,          20.
      9,         100.,           0.,          20.
     10,         100.,          40.,          15.
     11,         100.,          35.,          15.
     12,         100.,          30.,          15.
     13,         100.,          25.,          15.
     14,         100.,          20.,          15.
     15,         100.,          15.,          15.
     16,         100.,          10.,          15.
     17,         100.,           5.,          15.
     18,         100.,           0.,          15.
     19,         100.,          40.,          10.
     20,         100.,          35.,          10.
     21,         100.,          30.,          10.
     22,         100.,          25.,          10.
     23,         100.,          20.,          10.
     24,         100.,          15.,          10.
     25,         100.,          10.,          10.
     26,         100.,           5.,          10.
     27,         100.,           0.,          10.
     28,         100.,          40.,           5.
     29,         100.,          35.,           5.
     30,         100.,          30.,           5.
     31,         100.,          25.,           5.
     32,         100.,          20.,           5.
     33,         100.,          15.,           5.
     34,         100.,          10.,           5.
     35,         100.,           5.,           5.
     36,         100.,           0.,           5.
     37,         100.,          40.,           0.
     38,         100.,          35.,           0.
     39,         100.,          30.,           0.
     40,         100.,          25.,           0.
     41,         100.,          20.,           0.
     42,         100.,          15.,           0.
     43,         100.,          10.,           0.
     44,         100.,           5.,           0.
     45,         100.,           0.,           0.
     46,          95.,          40.,          20.
     47,          95.,          35.,          20.
     48,          95.,          30.,          20.
     49,          95.,          25.,          20.
     50,          95.,          20.,          20.
     51,          95.,          15.,          20.
     52,          95.,          10.,          20.
     53,          95.,           5.,          20.
     54,          95.,           0.,          20.
     55,          95.,          40.,          15.
     56,          95.,          35.,          15.
     57,          95.,          30.,          15.
     58,          95.,          25.,          15.
     59,          95.,          20.,          15.
     60,          95.,          15.,          15.
     61,          95.,          10.,          15.
     62,          95.,           5.,          15.
     63,          95.,           0.,          15.
     64,          95.,          40.,          10.
     65,          95.,          35.,          10.
     66,          95.,          30.,          10.
     67,          95.,          25.,          10.
     68,          95.,          20.,          10.
     69,          95.,          15.,          10.
     70,          95.,          10.,          10.
     71,          95.,           5.,          10.
     72,          95.,           0.,          10.
     73,          95.,          40.,           5.
     74,          95.,          35.,           5.
     75,          95.,          30.,           5.
     76,          95.,          25.,           5.
     77,          95.,          20.,           5.
     78,          95.,          15.,           5.
     79,          95.,          10.,           5.
     80,          95.,           5.,           5.
     81,          95.,           0.,           5.
     82,          95.,          40.,           0.
     83,          95.,          35.,           0.
     84,          95.,          30.,           0.
     85,          95.,          25.,           0.
     86,          95.,          20.,           0.
     87,          95.,          15.,           0.
     88,          95.,          10.,           0.
     89,          95.,           5.,           0.
     90,          95.,           0.,           0.
     91,          90.,          40.,          20.
     92,          90.,          35.,          20.
     93,          90.,          30.,          20.
     94,          90.,          25.,          20.
     95,          90.,          20.,          20.
     96,          90.,          15.,          20.
     97,          90.,          10.,          20.
     98,          90.,           5.,          20.
     99,          90.,           0.,          20.
    100,          90.,          40.,          15.
    101,          90.,          35.,          15.
    102,          90.,          30.,          15.
    103,          90.,          25.,          15.
    104,          90.,          20.,          15.
    105,          90.,          15.,          15.
    106,          90.,          10.,          15.
    107,          90.,           5.,          15.
    108,          90.,           0.,          15.
    109,          90.,          40.,          10.
    110,          90.,          35.,          10.
    111,          90.,          30.,          10.
    112,          90.,          25.,          10.
    113,          90.,          20.,          10.
    114,          90.,          15.,          10.
    115,          90.,          10.,          10.
    116,          90.,           5.,          10.
    117,          90.,           0.,          10.
    118,          90.,          40.,           5.
    119,          90.,          35.,           5.
    120,          90.,          30.,           5.
    121,          90.,          25.,           5.
    122,          90.,          20.,           5.
    123,          90.,          15.,           5.
    124,          90.,          10.,           5.
    125,          90.,           5.,           5.
    126,          90.,           0.,           5.
    127,          90.,          40.,           0.
    128,          90.,          35.,           0.
    129,          90.,          30.,           0.
    130,          90.,          25.,           0.
    131,          90.,          20.,           0.
    132,          90.,          15.,           0.
    133,          90.,          10.,           0.
    134,          90.,           5.,           0.
    135,          90.,           0.,           0.
    136,          85.,          40.,          20.
    137,          85.,          35.,          20.
    138,          85.,          30.,          20.
    139,          85.,          25.,          20.
    140,          85.,          20.,          20.
    141,          85.,          15.,          20.
    142,          85.,          10.,          20.
    143,          85.,           5.,          20.
    144,          85.,           0.,          20.
    145,          85.,          40.,          15.
    146,          85.,          35.,          15.
    147,          85.,          30.,          15.
    148,          85.,          25.,          15.
    149,          85.,          20.,          15.
    150,          85.,          15.,          15.
    151,          85.,          10.,          15.
    152,          85.,           5.,          15.
    153,          85.,           0.,          15.
    154,          85.,          40.,          10.
    155,          85.,          35.,          10.
    156,          85.,          30.,          10.
    157,          85.,          25.,          10.
    158,          85.,          20.,          10.
    159,          85.,          15.,          10.
    160,          85.,          10.,          10.
    161,          85.,           5.,          10.
    162,          85.,           0.,          10.
    163,          85.,          40.,           5.
    164,          85.,          35.,           5.
    165,          85.,          30.,           5.
    166,          85.,          25.,           5.
    167,          85.,          20.,           5.
    168,          85.,          15.,           5.
    169,          85.,          10.,           5.
    170,          85.,           5.,           5.
    171,          85.,           0.,           5.
    172,          85.,          40.,           0.
    173,          85.,          35.,           0.
    174,          85.,          30.,           0.
    175,          85.,          25.,           0.
    176,          85.,          20.,           0.
    177,          85.,          15.,           0.
    178,          85.,          10.,           0.
    179,          85.,           5.,           0.
    180,          85.,           0.,           0.
    181,          80.,          40.,          20.
    182,          80.,          35.,          20.
    183,          80.,          30.,          20.
    184,          80.,          25.,          20.
    185,          80.,          20.,          20.
    186,          80.,          15.,          20.
    187,          80.,          10.,          20.
    188,          80.,           5.,          20.
    189,          80.,           0.,          20.
    190,          80.,          40.,          15.
    191,          80.,          35.,          15.
    192,          80.,          30.,          15.
    193,          80.,          25.,          15.
    194,          80.,          20.,          15.
    195,          80.,          15.,          15.
    196,          80.,          10.,          15.
    197,          80.,           5.,          15.
    198,          80.,           0.,          15.
    199,          80.,          40.,          10.
    200,          80.,          35.,          10.
    201,          80.,          30.,          10.
    202,          80.,          25.,          10.
    203,          80.,          20.,          10.
    204,          80.,          15.,          10.
    205,          80.,          10.,          10.
    206,          80.,           5.,          10.
    207,          80.,           0.,          10.
    208,          80.,          40.,           5.
    209,          80.,          35.,           5.
    210,          80.,          30.,           5.
    211,          80.,          25.,           5.
    212,          80.,          20.,           5.
    213,          80.,          15.,           5.
    214,          80.,          10.,           5.
    215,          80.,           5.,           5.
    216,          80.,           0.,           5.
    217,          80.,          40.,           0.
    218,          80.,          35.,           0.
    219,          80.,          30.,           0.
    220,          80.,          25.,           0.
    221,          80.,          20.,           0.
    222,          80.,          15.,           0.
    223,          80.,          10.,           0.
    224,          80.,           5.,           0.
    225,          80.,           0.,           0.
    226,          75.,          40.,          20.
    227,          75.,          35.,          20.
    228,          75.,          30.,          20.
    229,          75.,          25.,          20.
    230,          75.,          20.,          20.
    231,          75.,          15.,          20.
    232,          75.,          10.,          20.
    233,          75.,           5.,          20.
    234,          75.,           0.,          20.
    235,          75.,          40.,          15.
    236,          75.,          35.,          15.
    237,          75.,          30.,          15.
    238,          75.,          25.,          15.
    239,          75.,          20.,          15.
    240,          75.,          15.,          15.
    241,          75.,          10.,          15.
    242,          75.,           5.,          15.
    243,          75.,           0.,          15.
    244,          75.,          40.,          10.
    245,          75.,          35.,          10.
    246,          75.,          30.,          10.
    247,          75.,          25.,          10.
    248,          75.,          20.,          10.
    249,          75.,          15.,          10.
    250,          75.,          10.,          10.
    251,          75.,           5.,          10.
    252,          75.,           0.,          10.
    253,          75.,          40.,           5.
    254,          75.,          35.,           5.
    255,          75.,          30.,           5.
    256,          75.,          25.,           5.
    257,          75.,          20.,           5.
    258,          75.,          15.,           5.
    259,          75.,          10.,           5.
    260,          75.,           5.,           5.
    261,          75.,           0.,           5.
    262,          75.,          40.,           0.
    263,          75.,          35.,           0.
    264,          75.,          30.,           0.
    265,          75.,          25.,           0.
    266,          75.,          20.,           0.
    267,          75.,          15.,           0.
    268,          75.,          10.,           0.
    269,          75.,           5.,           0.
    270,          75.,           0.,           0.
    271,          70.,          40.,          20.
    272,          70.,          35.,          20.
    273,          70.,          30.,          20.
    274,          70.,          25.,          20.
    275,          70.,          20.,          20.
    276,          70.,          15.,          20.
    277,          70.,          10.,          20.
    278,          70.,           5.,          20.
    279,          70.,           0.,          20.
    280,          70.,          40.,          15.
    281,          70.,          35.,          15.
    282,          70.,          30.,          15.
    283,          70.,          25.,          15.
    284,          70.,          20.,          15.
    285,          70.,          15.,          15.
    286,          70.,          10.,          15.
    287,          70.,           5.,          15.
    288,          70.,           0.,          15.
    289,          70.,          40.,          10.
    290,          70.,          35.,          10.
    291,          70.,          30.,          10.
    292,          70.,          25.,          10.
    293,          70.,          20.,          10.
    294,          70.,          15.,          10.
    295,          70.,          10.,          10.
    296,          70.,           5.,          10.
    297,          70.,           0.,          10.
    298,          70.,          40.,           5.
    299,          70.,          35.,           5.
    300,          70.,          30.,           5.
    301,          70.,          25.,           5.
    302,          70.,          20.,           5.
    303,          70.,          15.,           5.
    304,          70.,          10.,           5.
    305,          70.,           5.,           5.
    306,          70.,           0.,           5.
    307,          70.,          40.,           0.
    308,          70.,          35.,           0.
    309,          70.,          30.,           0.
    310,          70.,          25.,           0.
    311,          70.,          20.,           0.
    312,          70.,          15.,           0.
    313,          70.,          10.,           0.
    314,          70.,           5.,           0.
    315,          70.,           0.,           0.
    316,          65.,          40.,          20.
    317,          65.,          35.,          20.
    318,          65.,          30.,          20.
    319,          65.,          25.,          20.
    320,          65.,          20.,          20.
    321,          65.,          15.,          20.
    322,          65.,          10.,          20.
    323,          65.,           5.,          20.
    324,          65.,           0.,          20.
    325,          65.,          40.,          15.
    326,          65.,          35.,          15.
    327,          65.,          30.,          15.
    328,          65.,          25.,          15.
    329,          65.,          20.,          15.
    330,          65.,          15.,          15.
    331,          65.,          10.,          15.
    332,          65.,           5.,          15.
    333,          65.,           0.,          15.
    334,          65.,          40.,          10.
    335,          65.,          35.,          10.
    336,          65.,          30.,          10.
    337,          65.,          25.,          10.
    338,          65.,          20.,          10.
    339,          65.,          15.,          10.
    340,          65.,          10.,          10.
    341,          65.,           5.,          10.
    342,          65.,           0.,          10.
    343,          65.,          40.,           5.
    344,          65.,          35.,           5.
    345,          65.,          30.,           5.
    346,          65.,          25.,           5.
    347,          65.,          20.,           5.
    348,          65.,          15.,           5.
    349,          65.,          10.,           5.
    350,          65.,           5.,           5.
    351,          65.,           0.,           5.
    352,          65.,          40.,           0.
    353,          65.,          35.,           0.
    354,          65.,          30.,           0.
    355,          65.,          25.,           0.
    356,          65.,          20.,           0.
    357,          65.,          15.,           0.
    358,          65.,          10.,           0.
    359,          65.,           5.,           0.
    360,          65.,           0.,           0.
    361,          60.,          40.,          20.
    362,          60.,          35.,          20.
    363,          60.,          30.,          20.
    364,          60.,          25.,          20.
    365,          60.,          20.,          20.
    366,          60.,          15.,          20.
    367,          60.,          10.,          20.
    368,          60.,           5.,          20.
    369,          60.,           0.,          20.
    370,          60.,          40.,          15.
    371,          60.,          35.,          15.
    372,          60.,          30.,          15.
    373,          60.,          25.,          15.
    374,          60.,          20.,          15.
    375,          60.,          15.,          15.
    376,          60.,          10.,          15.
    377,          60.,           5.,          15.
    378,          60.,           0.,          15.
    379,          60.,          40.,          10.
    380,          60.,          35.,          10.
    381,          60.,          30.,          10.
    382,          60.,          25.,          10.
    383,          60.,          20.,          10.
    384,          60.,          15.,          10.
    385,          60.,          10.,          10.
    386,          60.,           5.,          10.
    387,          60.,           0.,          10.
    388,          60.,          40.,           5.
    389,          60.,          35.,           5.
    390,          60.,          30.,           5.
    391,          60.,          25.,           5.
    392,          60.,          20.,           5.
    393,          60.,          15.,           5.
    394,          60.,          10.,           5.
    395,          60.,           5.,           5.
    396,          60.,           0.,           5.
    397,          60.,          40.,           0.
    398,          60.,          35.,           0.
    399,          60.,          30.,           0.
    400,          60.,          25.,           0.
    401,          60.,          20.,           0.
    402,          60.,          15.,           0.
    403,          60.,          10.,           0.
    404,          60.,           5.,           0.
    405,          60.,           0.,           0.
    406,          55.,          40.,          20.
    407,          55.,          35.,          20.
    408,          55.,          30.,          20.
    409,          55.,          25.,          20.
    410,          55.,          20.,          20.
    411,          55.,          15.,          20.
    412,          55.,          10.,          20.
    413,          55.,           5.,          20.
    414,          55.,           0.,          20.
    415,          55.,          40.,          15.
    416,          55.,          35.,          15.
    417,          55.,          30.,          15.
    418,          55.,          25.,          15.
    419,          55.,          20.,          15.
    420,          55.,          15.,          15.
    421,          55.,          10.,          15.
    422,          55.,           5.,          15.
    423,          55.,           0.,          15.
    424,          55.,          40.,          10.
    425,          55.,          35.,          10.
    426,          55.,          30.,          10.
    427,          55.,          25.,          10.
    428,          55.,          20.,          10.
    429,          55.,          15.,          10.
    430,          55.,          10.,          10.
    431,          55.,           5.,          10.
    432,          55.,           0.,          10.
    433,          55.,          40.,           5.
    434,          55.,          35.,           5.
    435,          55.,          30.,           5.
    436,          55.,          25.,           5.
    437,          55.,          20.,           5.
    438,          55.,          15.,           5.
    439,          55.,          10.,           5.
    440,          55.,           5.,           5.
    441,          55.,           0.,           5.
    442,          55.,          40.,           0.
    443,          55.,          35.,           0.
    444,          55.,          30.,           0.
    445,          55.,          25.,           0.
    446,          55.,          20.,           0.
    447,          55.,          15.,           0.
    448,          55.,          10.,           0.
    449,          55.,           5.,           0.
    450,          55.,           0.,           0.
    451,          50.,          40.,          20.
    452,          50.,          35.,          20.
    453,          50.,          30.,          20.
    454,          50.,          25.,          20.
    455,          50.,          20.,          20.
    456,          50.,          15.,          20.
    457,          50.,          10.,          20.
    458,          50.,           5.,          20.
    459,          50.,           0.,          20.
    460,          50.,          40.,          15.
    461,          50.,          35.,          15.
    462,          50.,          30.,          15.
    463,          50.,          25.,          15.
    464,          50.,          20.,          15.
    465,          50.,          15.,          15.
    466,          50.,          10.,          15.
    467,          50.,           5.,          15.
    468,          50.,           0.,          15.
    469,          50.,          40.,          10.
    470,          50.,          35.,          10.
    471,          50.,          30.,          10.
    472,          50.,          25.,          10.
    473,          50.,          20.,          10.
    474,          50.,          15.,          10.
    475,          50.,          10.,          10.
    476,          50.,           5.,          10.
    477,          50.,           0.,          10.
    478,          50.,          40.,           5.
    479,          50.,          35.,           5.
    480,          50.,          30.,           5.
    481,          50.,          25.,           5.
    482,          50.,          20.,           5.
    483,          50.,          15.,           5.
    484,          50.,          10.,           5.
    485,          50.,           5.,           5.
    486,          50.,           0.,           5.
    487,          50.,          40.,           0.
    488,          50.,          35.,           0.
    489,          50.,          30.,           0.
    490,          50.,          25.,           0.
    491,          50.,          20.,           0.
    492,          50.,          15.,           0.
    493,          50.,          10.,           0.
    494,          50.,           5.,           0.
    495,          50.,           0.,           0.
    496,          45.,          40.,          20.
    497,          45.,          35.,          20.
    498,          45.,          30.,          20.
    499,          45.,          25.,          20.
    500,          45.,          20.,          20.
    501,          45.,          15.,          20.
    502,          45.,          10.,          20.
    503,          45.,           5.,          20.
    504,          45.,           0.,          20.
    505,          45.,          40.,          15.
    506,          45.,          35.,          15.
    507,          45.,          30.,          15.
    508,          45.,          25.,          15.
    509,          45.,          20.,          15.
    510,          45.,          15.,          15.
    511,          45.,          10.,          15.
    512,          45.,           5.,          15.
    513,          45.,           0.,          15.
    514,          45.,          40.,          10.
    515,          45.,          35.,          10.
    516,          45.,          30.,          10.
    517,          45.,          25.,          10.
    518,          45.,          20.,          10.
    519,          45.,          15.,          10.
    520,          45.,          10.,          10.
    521,          45.,           5.,          10.
    522,          45.,           0.,          10.
    523,          45.,          40.,           5.
    524,          45.,          35.,           5.
    525,          45.,          30.,           5.
    526,          45.,          25.,           5.
    527,          45.,          20.,           5.
    528,          45.,          15.,           5.
    529,          45.,          10.,           5.
    530,          45.,           5.,           5.
    531,          45.,           0.,           5.
    532,          45.,          40.,           0.
    533,          45.,          35.,           0.
    534,          45.,          30.,           0.
    535,          45.,          25.,           0.
    536,          45.,          20.,           0.
    537,          45.,          15.,           0.
    538,          45.,          10.,           0.
    539,          45.,           5.,           0.
    540,          45.,           0.,           0.
    541,          40.,          40.,          20.
    542,          40.,          35.,          20.
    543,          40.,          30.,          20.
    544,          40.,          25.,          20.
    545,          40.,          20.,          20.
    546,          40.,          15.,          20.
    547,          40.,          10.,          20.
    548,          40.,           5.,          20.
    549,          40.,           0.,          20.
    550,          40.,          40.,          15.
    551,          40.,          35.,          15.
    552,          40.,          30.,          15.
    553,          40.,          25.,          15.
    554,          40.,          20.,          15.
    555,          40.,          15.,          15.
    556,          40.,          10.,          15.
    557,          40.,           5.,          15.
    558,          40.,           0.,          15.
    559,          40.,          40.,          10.
    560,          40.,          35.,          10.
    561,          40.,          30.,          10.
    562,          40.,          25.,          10.
    563,          40.,          20.,          10.
    564,          40.,          15.,          10.
    565,          40.,          10.,          10.
    566,          40.,           5.,          10.
    567,          40.,           0.,          10.
    568,          40.,          40.,           5.
    569,          40.,          35.,           5.
    570,          40.,          30.,           5.
    571,          40.,          25.,           5.
    572,          40.,          20.,           5.
    573,          40.,          15.,           5.
    574,          40.,          10.,           5.
    575,          40.,           5.,           5.
    576,          40.,           0.,           5.
    577,          40.,          40.,           0.
    578,          40.,          35.,           0.
    579,          40.,          30.,           0.
    580,          40.,          25.,           0.
    581,          40.,          20.,           0.
    582,          40.,          15.,           0.
    583,          40.,          10.,           0.
    584,          40.,           5.,           0.
    585,          40.,           0.,           0.
    586,          35.,          40.,          20.
    587,          35.,          35.,          20.
    588,          35.,          30.,          20.
    589,          35.,          25.,          20.
    590,          35.,          20.,          20.
    591,          35.,          15.,          20.
    592,          35.,          10.,          20.
    593,          35.,           5.,          20.
    594,          35.,           0.,          20.
    595,          35.,          40.,          15.
    596,          35.,          35.,          15.
    597,          35.,          30.,          15.
    598,          35.,          25.,          15.
    599,          35.,          20.,          15.
    600,          35.,          15.,          15.
    601,          35.,          10.,          15.
    602,          35.,           5.,          15.
    603,          35.,           0.,          15.
    604,          35.,          40.,          10.
    605,          35.,          35.,          10.
    606,          35.,          30.,          10.
    607,          35.,          25.,          10.
    608,          35.,          20.,          10.
    609,          35.,          15.,          10.
    610,          35.,          10.,          10.
    611,          35.,           5.,          10.
    612,          35.,           0.,          10.
    613,          35.,          40.,           5.
    614,          35.,          35.,           5.
    615,          35.,          30.,           5.
    616,          35.,          25.,           5.
    617,          35.,          20.,           5.
    618,          35.,          15.,           5.
    619,          35.,          10.,           5.
    620,          35.,           5.,           5.
    621,          35.,           0.,           5.
    622,          35.,          40.,           0.
    623,          35.,          35.,           0.
    624,          35.,          30.,           0.
    625,          35.,          25.,           0.
    626,          35.,          20.,           0.
    627,          35.,          15.,           0.
    628,          35.,          10.,           0.
    629,          35.,           5.,           0.
    630,          35.,           0.,           0.
    631,          30.,          40.,          20.
    632,          30.,          35.,          20.
    633,          30.,          30.,          20.
    634,          30.,          25.,          20.
    635,          30.,          20.,          20.
    636,          30.,          15.,          20.
    637,          30.,          10.,          20.
    638,          30.,           5.,          20.
    639,          30.,           0.,          20.
    640,          30.,          40.,          15.
    641,          30.,          35.,          15.
    642,          30.,          30.,          15.
    643,          30.,          25.,          15.
    644,          30.,          20.,          15.
    645,          30.,          15.,          15.
    646,          30.,          10.,          15.
    647,          30.,           5.,          15.
    648,          30.,           0.,          15.
    649,          30.,          40.,          10.
    650,          30.,          35.,          10.
    651,          30.,          30.,          10.
    652,          30.,          25.,          10.
    653,          30.,          20.,          10.
    654,          30.,          15.,          10.
    655,          30.,          10.,          10.
    656,          30.,           5.,          10.
    657,          30.,           0.,          10.
    658,          30.,          40.,           5.
    659,          30.,          35.,           5.
    660,          30.,          30.,           5.
    661,          30.,          25.,           5.
    662,          30.,          20.,           5.
    663,          30.,          15.,           5.
    664,          30.,          10.,           5.
    665,          30.,           5.,           5.
    666,          30.,           0.,           5.
    667,          30.,          40.,           0.
    668,          30.,          35.,           0.
    669,          30.,          30.,           0.
    670,          30.,          25.,           0.
    671,          30.,          20.,           0.
    672,          30.,          15.,           0.
    673,          30.,          10.,           0.
    674,          30.,           5.,           0.
    675,          30.,           0.,           0.
    676,          25.,          40.,          20.
    677,          25.,          35.,          20.
    678,          25.,          30.,          20.
    679,          25.,          25.,          20.
    680,          25.,          20.,          20.
    681,          25.,          15.,          20.
    682,          25.,          10.,          20.
    683,          25.,           5.,          20.
    684,          25.,           0.,          20.
    685,          25.,          40.,          15.
    686,          25.,          35.,          15.
    687,          25.,          30.,          15.
    688,          25.,          25.,          15.
    689,          25.,          20.,          15.
    690,          25.,          15.,          15.
    691,          25.,          10.,          15.
    692,          25.,           5.,          15.
    693,          25.,           0.,          15.
    694,          25.,          40.,          10.
    695,          25.,          35.,          10.
    696,          25.,          30.,          10.
    697,          25.,          25.,          10.
    698,          25.,          20.,          10.
    699,          25.,          15.,          10.
    700,          25.,          10.,          10.
    701,          25.,           5.,          10.
    702,          25.,           0.,          10.
    703,          25.,          40.,           5.
    704,          25.,          35.,           5.
    705,          25.,          30.,           5.
    706,          25.,          25.,           5.
    707,          25.,          20.,           5.
    708,          25.,          15.,           5.
    709,          25.,          10.,           5.
    710,          25.,           5.,           5.
    711,          25.,           0.,           5.
    712,          25.,          40.,           0.
    713,          25.,          35.,           0.
    714,          25.,          30.,           0.
    715,          25.,          25.,           0.
    716,          25.,          20.,           0.
    717,          25.,          15.,           0.
    718,          25.,          10.,           0.
    719,          25.,           5.,           0.
    720,          25.,           0.,           0.
    721,          20.,          40.,          20.
    722,          20.,          35.,          20.
    723,          20.,          30.,          20.
    724,          20.,          25.,          20.
    725,          20.,          20.,          20.
    726,          20.,          15.,          20.
    727,          20.,          10.,          20.
    728,          20.,           5.,          20.
    729,          20.,           0.,          20.
    730,          20.,          40.,          15.
    731,          20.,          35.,          15.
    732,          20.,          30.,          15.
    733,          20.,          25.,          15.
    734,          20.,          20.,          15.
    735,          20.,          15.,          15.
    736,          20.,          10.,          15.
    737,          20.,           5.,          15.
    738,          20.,           0.,          15.
    739,          20.,          40.,          10.
    740,          20.,          35.,          10.
    741,          20.,          30.,          10.
    742,          20.,          25.,          10.
    743,          20.,          20.,          10.
    744,          20.,          15.,          10.
    745,          20.,          10.,          10.
    746,          20.,           5.,          10.
    747,          20.,           0.,          10.
    748,          20.,          40.,           5.
    749,          20.,          35.,           5.
    750,          20.,          30.,           5.
    751,          20.,          25.,           5.
    752,          20.,          20.,           5.
    753,          20.,          15.,           5.
    754,          20.,          10.,           5.
    755,          20.,           5.,           5.
    756,          20.,           0.,           5.
    757,          20.,          40.,           0.
    758,          20.,          35.,           0.
    759,          20.,          30.,           0.
    760,          20.,          25.,           0.
    761,          20.,          20.,           0.
    762,          20.,          15.,           0.
    763,          20.,          10.,           0.
    764,          20.,           5.,           0.
    765,          20.,           0.,           0.
    766,          15.,          40.,          20.
    767,          15.,          35.,          20.
    768,          15.,          30.,          20.
    769,          15.,          25.,          20.
    770,          15.,          20.,          20.
    771,          15.,          15.,          20.
    772,          15.,          10.,          20.
    773,          15.,           5.,          20.
    774,          15.,           0.,          20.
    775,          15.,          40.,          15.
    776,          15.,          35.,          15.
    777,          15.,          30.,          15.
    778,          15.,          25.,          15.
    779,          15.,          20.,          15.
    780,          15.,          15.,          15.
    781,          15.,          10.,          15.
    782,          15.,           5.,          15.
    783,          15.,           0.,          15.
    784,          15.,          40.,          10.
    785,          15.,          35.,          10.
    786,          15.,          30.,          10.
    787,          15.,          25.,          10.
    788,          15.,          20.,          10.
    789,          15.,          15.,          10.
    790,          15.,          10.,          10.
    791,          15.,           5.,          10.
    792,          15.,           0.,          10.
    793,          15.,          40.,           5.
    794,          15.,          35.,           5.
    795,          15.,          30.,           5.
    796,          15.,          25.,           5.
    797,          15.,          20.,           5.
    798,          15.,          15.,           5.
    799,          15.,          10.,           5.
    800,          15.,           5.,           5.
    801,          15.,           0.,           5.
    802,          15.,          40.,           0.
    803,          15.,          35.,           0.
    804,          15.,          30.,           0.
    805,          15.,          25.,           0.
    806,          15.,          20.,           0.
    807,          15.,          15.,           0.
    808,          15.,          10.,           0.
    809,          15.,           5.,           0.
    810,          15.,           0.,           0.
    811,          10.,          40.,          20.
    812,          10.,          35.,          20.
    813,          10.,          30.,          20.
    814,          10.,          25.,          20.
    815,          10.,          20.,          20.
    816,          10.,          15.,          20.
    817,          10.,          10.,          20.
    818,          10.,           5.,          20.
    819,          10.,           0.,          20.
    820,          10.,          40.,          15.
    821,          10.,          35.,          15.
    822,          10.,          30.,          15.
    823,          10.,          25.,          15.
    824,          10.,          20.,          15.
    825,          10.,          15.,          15.
    826,          10.,          10.,          15.
    827,          10.,           5.,          15.
    828,          10.,           0.,          15.
    829,          10.,          40.,          10.
    830,          10.,          35.,          10.
    831,          10.,          30.,          10.
    832,          10.,          25.,          10.
    833,          10.,          20.,          10.
    834,          10.,          15.,          10.
    835,          10.,          10.,          10.
    836,          10.,           5.,          10.
    837,          10.,           0.,          10.
    838,          10.,          40.,           5.
    839,          10.,          35.,           5.
    840,          10.,          30.,           5.
    841,          10.,          25.,           5.
    842,          10.,          20.,           5.
    843,          10.,          15.,           5.
    844,          10.,          10.,           5.
    845,          10.,           5.,           5.
    846,          10.,           0.,           5.
    847,          10.,          40.,           0.
    848,          10.,          35.,           0.
    849,          10.,          30.,           0.
    850,          10.,          25.,           0.
    851,          10.,          20.,           0.
    852,          10.,          15.,           0.
    853,          10.,          10.,           0.
    854,          10.,           5.,           0.
    855,          10.,           0.,           0.
    856,           5.,          40.,          20.
    857,           5.,          35.,          20.
    858,           5.,          30.,          20.
    859,           5.,          25.,          20.
    860,           5.,          20.,          20.
    861,           5.,          15.,          20.
    862,           5.,          10.,          20.
    863,           5.,           5.,          20.
    864,           5.,           0.,          20.
    865,           5.,          40.,          15.
    866,           5.,          35.,          15.
    867,           5.,          30.,          15.
    868,           5.,          25.,          15.
    869,           5.,          20.,          15.
    870,           5.,          15.,          15.
    871,           5.,          10.,          15.
    872,           5.,           5.,          15.
    873,           5.,           0.,          15.
    874,           5.,          40.,          10.
    875,           5.,          35.,          10.
    876,           5.,          30.,          10.
    877,           5.,          25.,          10.
    878,           5.,          20.,          10.
    879,           5.,          15.,          10.
    880,           5.,          10.,          10.
    881,           5.,           5.,          10.
    882,           5.,           0.,          10.
    883,           5.,          40.,           5.
    884,           5.,          35.,           5.
    885,           5.,          30.,           5.
    886,           5.,          25.,           5.
    887,           5.,          20.,           5.
    888,           5.,          15.,           5.
    889,           5.,          10.,           5.
    890,           5.,           5.,           5.
    891,           5.,           0.,           5.
    892,           5.,          40.,           0.
    893,           5.,          35.,           0.
    894,           5.,          30.,           0.
    895,           5.,          25.,           0.
    896,           5.,          20.,           0.
    897,           5.,          15.,           0.
    898,           5.,          10.,           0.
    899,           5.,           5.,           0.
    900,           5.,           0.,           0.
    901,           0.,          40.,          20.
    902,           0.,          35.,          20.
    903,           0.,          30.,          20.
    904,           0.,          25.,          20.
    905,           0.,          20.,          20.
    906,           0.,          15.,          20.
    907,           0.,          10.,          20.
    908,           0.,           5.,          20.
    909,           0.,           0.,          20.
    910,           0.,          40.,          15.
    911,           0.,          35.,          15.
    912,           0.,          30.,          15.
    913,           0.,          25.,          15.
    914,           0.,          20.,          15.
    915,           0.,          15.,          15.
    916,           0.,          10.,          15.
    917,           0.,           5.,          15.
    918,           0.,           0.,          15.
    919,           0.,          40.,          10.
    920,           0.,          35.,          10.
    921,           0.,          30.,          10.
    922,           0.,          25.,          10.
    923,           0.,          20.,          10.
    924,           0.,          15.,          10.
    925,           0.,          10.,          10.
    926,           0.,           5.,          10.
    927,           0.,           0.,          10.
    928,           0.,          40.,           5.
    929,           0.,          35.,           5.
    930,           0.,          30.,           5.
    931,           0.,          25.,           5.
    932,           0.,          20.,           5.
    933,           0.,          15.,           5.
    934,           0.,          10.,           5.
    935,           0.,           5.,           5.
    936,           0.,           0.,           5.
    937,           0.,          40.,           0.
    938,           0.,          35.,           0.
    939,           0.,          30.,           0.
    940,           0.,          25.,           0.
    941,           0.,          20.,           0.
    942,           0.,          15.,           0.
    943,           0.,          10.,           0.
    944,           0.,           5.,           0.
    945,           0.,           0.,           0.
*Element, type=C3D8R
  1,  46,  47,  56,  55,   1,   2,  11,  10
  2,  47,  48,  57,  56,   2,   3,  12,  11
  3,  48,  49,  58,  57,   3,   4,  13,  12
  4,  49,  50,  59,  58,   4,   5,  14,  13
  5,  50,  51,  60,  59,   5,   6,  15,  14
  6,  51,  52,  61,  60,   6,   7,  16,  15
  7,  52,  53,  62,  61,   7,   8,  17,  16
  8,  53,  54,  63,  62,   8,   9,  18,  17
  9,  55,  56,  65,  64,  10,  11,  20,  19
 10,  56,  57,  66,  65,  11,  12,  21,  20
 11,  57,  58,  67,  66,  12,  13,  22,  21
 12,  58,  59,  68,  67,  13,  14,  23,  22
 13,  59,  60,  69,  68,  14,  15,  24,  23
 14,  60,  61,  70,  69,  15,  16,  25,  24
 15,  61,  62,  71,  70,  16,  17,  26,  25
 16,  62,  63,  72,  71,  17,  18,  27,  26
 17,  64,  65,  74,  73,  19,  20,  29,  28
 18,  65,  66,  75,  74,  20,  21,  30,  29
 19,  66,  67,  76,  75,  21,  22,  31,  30
 20,  67,  68,  77,  76,  22,  23,  32,  31
 21,  68,  69,  78,  77,  23,  24,  33,  32
 22,  69,  70,  79,  78,  24,  25,  34,  33
 23,  70,  71,  80,  79,  25,  26,  35,  34
 24,  71,  72,  81,  80,  26,  27,  36,  35
 25,  73,  74,  83,  82,  28,  29,  38,  37
 26,  74,  75,  84,  83,  29,  30,  39,  38
 27,  75,  76,  85,  84,  30,  31,  40,  39
 28,  76,  77,  86,  85,  31,  32,  41,  40
 29,  77,  78,  87,  86,  32,  33,  42,  41
 30,  78,  79,  88,  87,  33,  34,  43,  42
 31,  79,  80,  89,  88,  34,  35,  44,  43
 32,  80,  81,  90,  89,  35,  36,  45,  44
 33,  91,  92, 101, 100,  46,  47,  56,  55
 34,  92,  93, 102, 101,  47,  48,  57,  56
 35,  93,  94, 103, 102,  48,  49,  58,  57
 36,  94,  95, 104, 103,  49,  50,  59,  58
 37,  95,  96, 105, 104,  50,  51,  60,  59
 38,  96,  97, 106, 105,  51,  52,  61,  60
 39,  97,  98, 107, 106,  52,  53,  62,  61
 40,  98,  99, 108, 107,  53,  54,  63,  62
 41, 100, 101, 110, 109,  55,  56,  65,  64
 42, 101, 102, 111, 110,  56,  57,  66,  65
 43, 102, 103, 112, 111,  57,  58,  67,  66
 44, 103, 104, 113, 112,  58,  59,  68,  67
 45, 104, 105, 114, 113,  59,  60,  69,  68
 46, 105, 106, 115, 114,  60,  61,  70,  69
 47, 106, 107, 116, 115,  61,  62,  71,  70
 48, 107, 108, 117, 116,  62,  63,  72,  71
 49, 109, 110, 119, 118,  64,  65,  74,  73
 50, 110, 111, 120, 119,  65,  66,  75,  74
 51, 111, 112, 121, 120,  66,  67,  76,  75
 52, 112, 113, 122, 121,  67,  68,  77,  76
 53, 113, 114, 123, 122,  68,  69,  78,  77
 54, 114, 115, 124, 123,  69,  70,  79,  78
 55, 115, 116, 125, 124,  70,  71,  80,  79
 56, 116, 117, 126, 125,  71,  72,  81,  80
 57, 118, 119, 128, 127,  73,  74,  83,  82
 58, 119, 120, 129, 128,  74,  75,  84,  83
 59, 120, 121, 130, 129,  75,  76,  85,  84
 60, 121, 122, 131, 130,  76,  77,  86,  85
 61, 122, 123, 132, 131,  77,  78,  87,  86
 62, 123, 124, 133, 132,  78,  79,  88,  87
 63, 124, 125, 134, 133,  79,  80,  89,  88
 64, 125, 126, 135, 134,  80,  81,  90,  89
 65, 136, 137, 146, 145,  91,  92, 101, 100
 66, 137, 138, 147, 146,  92,  93, 102, 101
 67, 138, 139, 148, 147,  93,  94, 103, 102
 68, 139, 140, 149, 148,  94,  95, 104, 103
 69, 140, 141, 150, 149,  95,  96, 105, 104
 70, 141, 142, 151, 150,  96,  97, 106, 105
 71, 142, 143, 152, 151,  97,  98, 107, 106
 72, 143, 144, 153, 152,  98,  99, 108, 107
 73, 145, 146, 155, 154, 100, 101, 110, 109
 74, 146, 147, 156, 155, 101, 102, 111, 110
 75, 147, 148, 157, 156, 102, 103, 112, 111
 76, 148, 149, 158, 157, 103, 104, 113, 112
 77, 149, 150, 159, 158, 104, 105, 114, 113
 78, 150, 151, 160, 159, 105, 106, 115, 114
 79, 151, 152, 161, 160, 106, 107, 116, 115
 80, 152, 153, 162, 161, 107, 108, 117, 116
 81, 154, 155, 164, 163, 109, 110, 119, 118
 82, 155, 156, 165, 164, 110, 111, 120, 119
 83, 156, 157, 166, 165, 111, 112, 121, 120
 84, 157, 158, 167, 166, 112, 113, 122, 121
 85, 158, 159, 168, 167, 113, 114, 123, 122
 86, 159, 160, 169, 168, 114, 115, 124, 123
 87, 160, 161, 170, 169, 115, 116, 125, 124
 88, 161, 162, 171, 170, 116, 117, 126, 125
 89, 163, 164, 173, 172, 118, 119, 128, 127
 90, 164, 165, 174, 173, 119, 120, 129, 128
 91, 165, 166, 175, 174, 120, 121, 130, 129
 92, 166, 167, 176, 175, 121, 122, 131, 130
 93, 167, 168, 177, 176, 122, 123, 132, 131
 94, 168, 169, 178, 177, 123, 124, 133, 132
 95, 169, 170, 179, 178, 124, 125, 134, 133
 96, 170, 171, 180, 179, 125, 126, 135, 134
 97, 181, 182, 191, 190, 136, 137, 146, 145
 98, 182, 183, 192, 191, 137, 138, 147, 146
 99, 183, 184, 193, 192, 138, 139, 148, 147
100, 184, 185, 194, 193, 139, 140, 149, 148
101, 185, 186, 195, 194, 140, 141, 150, 149
102, 186, 187, 196, 195, 141, 142, 151, 150
103, 187, 188, 197, 196, 142, 143, 152, 151
104, 188, 189, 198, 197, 143, 144, 153, 152
105, 190, 191, 200, 199, 145, 146, 155, 154
106, 191, 192, 201, 200, 146, 147, 156, 155
107, 192, 193, 202, 201, 147, 148, 157, 156
108, 193, 194, 203, 202, 148, 149, 158, 157
109, 194, 195, 204, 203, 149, 150, 159, 158
110, 195, 196, 205, 204, 150, 151, 160, 159
111, 196, 197, 206, 205, 151, 152, 161, 160
112, 197, 198, 207, 206, 152, 153, 162, 161
113, 199, 200, 209, 208, 154, 155, 164, 163
114, 200, 201, 210, 209, 155, 156, 165, 164
115, 201, 202, 211, 210, 156, 157, 166, 165
116, 202, 203, 212, 211, 157, 158, 167, 166
117, 203, 204, 213, 212, 158, 159, 168, 167
118, 204, 205, 214, 213, 159, 160, 169, 168
119, 205, 206, 215, 214, 160, 161, 170, 169
120, 206, 207, 216, 215, 161, 162, 171, 170
121, 208, 209, 218, 217, 163, 164, 173, 172
122, 209, 210, 219, 218, 164, 165, 174, 173
123, 210, 211, 220, 219, 165, 166, 175, 174
124, 211, 212, 221, 220, 166, 167, 176, 175
125, 212, 213, 222, 221, 167, 168, 177, 176
126, 213, 214, 223, 222, 168, 169, 178, 177
127, 214, 215, 224, 223, 169, 170, 179, 178
128, 215, 216, 225, 224, 170, 171, 180, 179
129, 226, 227, 236, 235, 181, 182, 191, 190
130, 227, 228, 237, 236, 182, 183, 192, 191
131, 228, 229, 238, 237, 183, 184, 193, 192
132, 229, 230, 239, 238, 184, 185, 194, 193
133, 230, 231, 240, 239, 185, 186, 195, 194
134, 231, 232, 241, 240, 186, 187, 196, 195
135, 232, 233, 242, 241, 187, 188, 197, 196
136, 233, 234, 243, 242, 188, 189, 198, 197
137, 235, 236, 245, 244, 190, 191, 200, 199
138, 236, 237, 246, 245, 191, 192, 201, 200
139, 237, 238, 247, 246, 192, 193, 202, 201
140, 238, 239, 248, 247, 193, 194, 203, 202
141, 239, 240, 249, 248, 194, 195, 204, 203
142, 240, 241, 250, 249, 195, 196, 205, 204
143, 241, 242, 251, 250, 196, 197, 206, 205
144, 242, 243, 252, 251, 197, 198, 207, 206
145, 244, 245, 254, 253, 199, 200, 209, 208
146, 245, 246, 255, 254, 200, 201, 210, 209
147, 246, 247, 256, 255, 201, 202, 211, 210
148, 247, 248, 257, 256, 202, 203, 212, 211
149, 248, 249, 258, 257, 203, 204, 213, 212
150, 249, 250, 259, 258, 204, 205, 214, 213
151, 250, 251, 260, 259, 205, 206, 215, 214
152, 251, 252, 261, 260, 206, 207, 216, 215
153, 253, 254, 263, 262, 208, 209, 218, 217
154, 254, 255, 264, 263, 209, 210, 219, 218
155, 255, 256, 265, 264, 210, 211, 220, 219
156, 256, 257, 266, 265, 211, 212, 221, 220
157, 257, 258, 267, 266, 212, 213, 222, 221
158, 258, 259, 268, 267, 213, 214, 223, 222
159, 259, 260, 269, 268, 214, 215, 224, 223
160, 260, 261, 270, 269, 215, 216, 225, 224
161, 271, 272, 281, 280, 226, 227, 236, 235
162, 272, 273, 282, 281, 227, 228, 237, 236
163, 273, 274, 283, 282, 228, 229, 238, 237
164, 274, 275, 284, 283, 229, 230, 239, 238
165, 275, 276, 285, 284, 230, 231, 240, 239
166, 276, 277, 286, 285, 231, 232, 241, 240
167, 277, 278, 287, 286, 232, 233, 242, 241
168, 278, 279, 288, 287, 233, 234, 243, 242
169, 280, 281, 290, 289, 235, 236, 245, 244
170, 281, 282, 291, 290, 236, 237, 246, 245
171, 282, 283, 292, 291, 237, 238, 247, 246
172, 283, 284, 293, 292, 238, 239, 248, 247
173, 284, 285, 294, 293, 239, 240, 249, 248
174, 285, 286, 295, 294, 240, 241, 250, 249
175, 286, 287, 296, 295, 241, 242, 251, 250
176, 287, 288, 297, 296, 242, 243, 252, 251
177, 289, 290, 299, 298, 244, 245, 254, 253
178, 290, 291, 300, 299, 245, 246, 255, 254
179, 291, 292, 301, 300, 246, 247, 256, 255
180, 292, 293, 302, 301, 247, 248, 257, 256
181, 293, 294, 303, 302, 248, 249, 258, 257
182, 294, 295, 304, 303, 249, 250, 259, 258
183, 295, 296, 305, 304, 250, 251, 260, 259
184, 296, 297, 306, 305, 251, 252, 261, 260
185, 298, 299, 308, 307, 253, 254, 263, 262
186, 299, 300, 309, 308, 254, 255, 264, 263
187, 300, 301, 310, 309, 255, 256, 265, 264
188, 301, 302, 311, 310, 256, 257, 266, 265
189, 302, 303, 312, 311, 257, 258, 267, 266
190, 303, 304, 313, 312, 258, 259, 268, 267
191, 304, 305, 314, 313, 259, 260, 269, 268
192, 305, 306, 315, 314, 260, 261, 270, 269
193, 316, 317, 326, 325, 271, 272, 281, 280
194, 317, 318, 327, 326, 272, 273, 282, 281
195, 318, 319, 328, 327, 273, 274, 283, 282
196, 319, 320, 329, 328, 274, 275, 284, 283
197, 320, 321, 330, 329, 275, 276, 285, 284
198, 321, 322, 331, 330, 276, 277, 286, 285
199, 322, 323, 332, 331, 277, 278, 287, 286
200, 323, 324, 333, 332, 278, 279, 288, 287
201, 325, 326, 335, 334, 280, 281, 290, 289
202, 326, 327, 336, 335, 281, 282, 291, 290
203, 327, 328, 337, 336, 282, 283, 292, 291
204, 328, 329, 338, 337, 283, 284, 293, 292
205, 329, 330, 339, 338, 284, 285, 294, 293
206, 330, 331, 340, 339, 285, 286, 295, 294
207, 331, 332, 341, 340, 286, 287, 296, 295
208, 332, 333, 342, 341, 287, 288, 297, 296
209, 334, 335, 344, 343, 289, 290, 299, 298
210, 335, 336, 345, 344, 290, 291, 300, 299
211, 336, 337, 346, 345, 291, 292, 301, 300
212, 337, 338, 347, 346, 292, 293, 302, 301
213, 338, 339, 348, 347, 293, 294, 303, 302
214, 339, 340, 349, 348, 294, 295, 304, 303
215, 340, 341, 350, 349, 295, 296, 305, 304
216, 341, 342, 351, 350, 296, 297, 306, 305
217, 343, 344, 353, 352, 298, 299, 308, 307
218, 344, 345, 354, 353, 299, 300, 309, 308
219, 345, 346, 355, 354, 300, 301, 310, 309
220, 346, 347, 356, 355, 301, 302, 311, 310
221, 347, 348, 357, 356, 302, 303, 312, 311
222, 348, 349, 358, 357, 303, 304, 313, 312
223, 349, 350, 359, 358, 304, 305, 314, 313
224, 350, 351, 360, 359, 305, 306, 315, 314
225, 361, 362, 371, 370, 316, 317, 326, 325
226, 362, 363, 372, 371, 317, 318, 327, 326
227, 363, 364, 373, 372, 318, 319, 328, 327
228, 364, 365, 374, 373, 319, 320, 329, 328
229, 365, 366, 375, 374, 320, 321, 330, 329
230, 366, 367, 376, 375, 321, 322, 331, 330
231, 367, 368, 377, 376, 322, 323, 332, 331
232, 368, 369, 378, 377, 323, 324, 333, 332
233, 370, 371, 380, 379, 325, 326, 335, 334
234, 371, 372, 381, 380, 326, 327, 336, 335
235, 372, 373, 382, 381, 327, 328, 337, 336
236, 373, 374, 383, 382, 328, 329, 338, 337
237, 374, 375, 384, 383, 329, 330, 339, 338
238, 375, 376, 385, 384, 330, 331, 340, 339
239, 376, 377, 386, 385, 331, 332, 341, 340
240, 377, 378, 387, 386, 332, 333, 342, 341
241, 379, 380, 389, 388, 334, 335, 344, 343
242, 380, 381, 390, 389, 335, 336, 345, 344
243, 381, 382, 391, 390, 336, 337, 346, 345
244, 382, 383, 392, 391, 337, 338, 347, 346
245, 383, 384, 393, 392, 338, 339, 348, 347
246, 384, 385, 394, 393, 339, 340, 349, 348
247, 385, 386, 395, 394, 340, 341, 350, 349
248, 386, 387, 396, 395, 341, 342, 351, 350
249, 388, 389, 398, 397, 343, 344, 353, 352
250, 389, 390, 399, 398, 344, 345, 354, 353
251, 390, 391, 400, 399, 345, 346, 355, 354
252, 391, 392, 401, 400, 346, 347, 356, 355
253, 392, 393, 402, 401, 347, 348, 357, 356
254, 393, 394, 403, 402, 348, 349, 358, 357
255, 394, 395, 404, 403, 349, 350, 359, 358
256, 395, 396, 405, 404, 350, 351, 360, 359
257, 406, 407, 416, 415, 361, 362, 371, 370
258, 407, 408, 417, 416, 362, 363, 372, 371
259, 408, 409, 418, 417, 363, 364, 373, 372
260, 409, 410, 419, 418, 364, 365, 374, 373
261, 410, 411, 420, 419, 365, 366, 375, 374
262, 411, 412, 421, 420, 366, 367, 376, 375
263, 412, 413, 422, 421, 367, 368, 377, 376
264, 413, 414, 423, 422, 368, 369, 378, 377
265, 415, 416, 425, 424, 370, 371, 380, 379
266, 416, 417, 426, 425, 371, 372, 381, 380
267, 417, 418, 427, 426, 372, 373, 382, 381
268, 418, 419, 428, 427, 373, 374, 383, 382
269, 419, 420, 429, 428, 374, 375, 384, 383
270, 420, 421, 430, 429, 375, 376, 385, 384
271, 421, 422, 431, 430, 376, 377, 386, 385
272, 422, 423, 432, 431, 377, 378, 387, 386
273, 424, 425, 434, 433, 379, 380, 389, 388
274, 425, 426, 435, 434, 380, 381, 390, 389
275, 426, 427, 436, 435, 381, 382, 391, 390
276, 427, 428, 437, 436, 382, 383, 392, 391
277, 428, 429, 438, 437, 383, 384, 393, 392
278, 429, 430, 439, 438, 384, 385, 394, 393
279, 430, 431, 440, 439, 385, 386, 395, 394
280, 431, 432, 441, 440, 386, 387, 396, 395
281, 433, 434, 443, 442, 388, 389, 398, 397
282, 434, 435, 444, 443, 389, 390, 399, 398
283, 435, 436, 445, 444, 390, 391, 400, 399
284, 436, 437, 446, 445, 391, 392, 401, 400
285, 437, 438, 447, 446, 392, 393, 402, 401
286, 438, 439, 448, 447, 393, 394, 403, 402
287, 439, 440, 449, 448, 394, 395, 404, 403
288, 440, 441, 450, 449, 395, 396, 405, 404
289, 451, 452, 461, 460, 406, 407, 416, 415
290, 452, 453, 462, 461, 407, 408, 417, 416
291, 453, 454, 463, 462, 408, 409, 418, 417
292, 454, 455, 464, 463, 409, 410, 419, 418
293, 455, 456, 465, 464, 410, 411, 420, 419
294, 456, 457, 466, 465, 411, 412, 421, 420
295, 457, 458, 467, 466, 412, 413, 422, 421
296, 458, 459, 468, 467, 413, 414, 423, 422
297, 460, 461, 470, 469, 415, 416, 425, 424
298, 461, 462, 471, 470, 416, 417, 426, 425
299, 462, 463, 472, 471, 417, 418, 427, 426
300, 463, 464, 473, 472, 418, 419, 428, 427
301, 464, 465, 474, 473, 419, 420, 429, 428
302, 465, 466, 475, 474, 420, 421, 430, 429
303, 466, 467, 476, 475, 421, 422, 431, 430
304, 467, 468, 477, 476, 422, 423, 432, 431
305, 469, 470, 479, 478, 424, 425, 434, 433
306, 470, 471, 480, 479, 425, 426, 435, 434
307, 471, 472, 481, 480, 426, 427, 436, 435
308, 472, 473, 482, 481, 427, 428, 437, 436
309, 473, 474, 483, 482, 428, 429, 438, 437
310, 474, 475, 484, 483, 429, 430, 439, 438
311, 475, 476, 485, 484, 430, 431, 440, 439
312, 476, 477, 486, 485, 431, 432, 441, 440
313, 478, 479, 488, 487, 433, 434, 443, 442
314, 479, 480, 489, 488, 434, 435, 444, 443
315, 480, 481, 490, 489, 435, 436, 445, 444
316, 481, 482, 491, 490, 436, 437, 446, 445
317, 482, 483, 492, 491, 437, 438, 447, 446
318, 483, 484, 493, 492, 438, 439, 448, 447
319, 484, 485, 494, 493, 439, 440, 449, 448
320, 485, 486, 495, 494, 440, 441, 450, 449
321, 496, 497, 506, 505, 451, 452, 461, 460
322, 497, 498, 507, 506, 452, 453, 462, 461
323, 498, 499, 508, 507, 453, 454, 463, 462
324, 499, 500, 509, 508, 454, 455, 464, 463
325, 500, 501, 510, 509, 455, 456, 465, 464
326, 501, 502, 511, 510, 456, 457, 466, 465
327, 502, 503, 512, 511, 457, 458, 467, 466
328, 503, 504, 513, 512, 458, 459, 468, 467
329, 505, 506, 515, 514, 460, 461, 470, 469
330, 506, 507, 516, 515, 461, 462, 471, 470
331, 507, 508, 517, 516, 462, 463, 472, 471
332, 508, 509, 518, 517, 463, 464, 473, 472
333, 509, 510, 519, 518, 464, 465, 474, 473
334, 510, 511, 520, 519, 465, 466, 475, 474
335, 511, 512, 521, 520, 466, 467, 476, 475
336, 512, 513, 522, 521, 467, 468, 477, 476
337, 514, 515, 524, 523, 469, 470, 479, 478
338, 515, 516, 525, 524, 470, 471, 480, 479
339, 516, 517, 526, 525, 471, 472, 481, 480
340, 517, 518, 527, 526, 472, 473, 482, 481
341, 518, 519, 528, 527, 473, 474, 483, 482
342, 519, 520, 529, 528, 474, 475, 484, 483
343, 520, 521, 530, 529, 475, 476, 485, 484
344, 521, 522, 531, 530, 476, 477, 486, 485
345, 523, 524, 533, 532, 478, 479, 488, 487
346, 524, 525, 534, 533, 479, 480, 489, 488
347, 525, 526, 535, 534, 480, 481, 490, 489
348, 526, 527, 536, 535, 481, 482, 491, 490
349, 527, 528, 537, 536, 482, 483, 492, 491
350, 528, 529, 538, 537, 483, 484, 493, 492
351, 529, 530, 539, 538, 484, 485, 494, 493
352, 530, 531, 540, 539, 485, 486, 495, 494
353, 541, 542, 551, 550, 496, 497, 506, 505
354, 542, 543, 552, 551, 497, 498, 507, 506
355, 543, 544, 553, 552, 498, 499, 508, 507
356, 544, 545, 554, 553, 499, 500, 509, 508
357, 545, 546, 555, 554, 500, 501, 510, 509
358, 546, 547, 556, 555, 501, 502, 511, 510
359, 547, 548, 557, 556, 502, 503, 512, 511
360, 548, 549, 558, 557, 503, 504, 513, 512
361, 550, 551, 560, 559, 505, 506, 515, 514
362, 551, 552, 561, 560, 506, 507, 516, 515
363, 552, 553, 562, 561, 507, 508, 517, 516
364, 553, 554, 563, 562, 508, 509, 518, 517
365, 554, 555, 564, 563, 509, 510, 519, 518
366, 555, 556, 565, 564, 510, 511, 520, 519
367, 556, 557, 566, 565, 511, 512, 521, 520
368, 557, 558, 567, 566, 512, 513, 522, 521
369, 559, 560, 569, 568, 514, 515, 524, 523
370, 560, 561, 570, 569, 515, 516, 525, 524
371, 561, 562, 571, 570, 516, 517, 526, 525
372, 562, 563, 572, 571, 517, 518, 527, 526
373, 563, 564, 573, 572, 518, 519, 528, 527
374, 564, 565, 574, 573, 519, 520, 529, 528
375, 565, 566, 575, 574, 520, 521, 530, 529
376, 566, 567, 576, 575, 521, 522, 531, 530
377, 568, 569, 578, 577, 523, 524, 533, 532
378, 569, 570, 579, 578, 524, 525, 534, 533
379, 570, 571, 580, 579, 525, 526, 535, 534
380, 571, 572, 581, 580, 526, 527, 536, 535
381, 572, 573, 582, 581, 527, 528, 537, 536
382, 573, 574, 583, 582, 528, 529, 538, 537
383, 574, 575, 584, 583, 529, 530, 539, 538
384, 575, 576, 585, 584, 530, 531, 540, 539
385, 586, 587, 596, 595, 541, 542, 551, 550
386, 587, 588, 597, 596, 542, 543, 552, 551
387, 588, 589, 598, 597, 543, 544, 553, 552
388, 589, 590, 599, 598, 544, 545, 554, 553
389, 590, 591, 600, 599, 545, 546, 555, 554
390, 591, 592, 601, 600, 546, 547, 556, 555
391, 592, 593, 602, 601, 547, 548, 557, 556
392, 593, 594, 603, 602, 548, 549, 558, 557
393, 595, 596, 605, 604, 550, 551, 560, 559
394, 596, 597, 606, 605, 551, 552, 561, 560
395, 597, 598, 607, 606, 552, 553, 562, 561
396, 598, 599, 608, 607, 553, 554, 563, 562
397, 599, 600, 609, 608, 554, 555, 564, 563
398, 600, 601, 610, 609, 555, 556, 565, 564
399, 601, 602, 611, 610, 556, 557, 566, 565
400, 602, 603, 612, 611, 557, 558, 567, 566
401, 604, 605, 614, 613, 559, 560, 569, 568
402, 605, 606, 615, 614, 560, 561, 570, 569
403, 606, 607, 616, 615, 561, 562, 571, 570
404, 607, 608, 617, 616, 562, 563, 572, 571
405, 608, 609, 618, 617, 563, 564, 573, 572
406, 609, 610, 619, 618, 564, 565, 574, 573
407, 610, 611, 620, 619, 565, 566, 575, 574
408, 611, 612, 621, 620, 566, 567, 576, 575
409, 613, 614, 623, 622, 568, 569, 578, 577
410, 614, 615, 624, 623, 569, 570, 579, 578
411, 615, 616, 625, 624, 570, 571, 580, 579
412, 616, 617, 626, 625, 571, 572, 581, 580
413, 617, 618, 627, 626, 572, 573, 582, 581
414, 618, 619, 628, 627, 573, 574, 583, 582
415, 619, 620, 629, 628, 574, 575, 584, 583
416, 620, 621, 630, 629, 575, 576, 585, 584
417, 631, 632, 641, 640, 586, 587, 596, 595
418, 632, 633, 642, 641, 587, 588, 597, 596
419, 633, 634, 643, 642, 588, 589, 598, 597
420, 634, 635, 644, 643, 589, 590, 599, 598
421, 635, 636, 645, 644, 590, 591, 600, 599
422, 636, 637, 646, 645, 591, 592, 601, 600
423, 637, 638, 647, 646, 592, 593, 602, 601
424, 638, 639, 648, 647, 593, 594, 603, 602
425, 640, 641, 650, 649, 595, 596, 605, 604
426, 641, 642, 651, 650, 596, 597, 606, 605
427, 642, 643, 652, 651, 597, 598, 607, 606
428, 643, 644, 653, 652, 598, 599, 608, 607
429, 644, 645, 654, 653, 599, 600, 609, 608
430, 645, 646, 655, 654, 600, 601, 610, 609
431, 646, 647, 656, 655, 601, 602, 611, 610
432, 647, 648, 657, 656, 602, 603, 612, 611
433, 649, 650, 659, 658, 604, 605, 614, 613
434, 650, 651, 660, 659, 605, 606, 615, 614
435, 651, 652, 661, 660, 606, 607, 616, 615
436, 652, 653, 662, 661, 607, 608, 617, 616
437, 653, 654, 663, 662, 608, 609, 618, 617
438, 654, 655, 664, 663, 609, 610, 619, 618
439, 655, 656, 665, 664, 610, 611, 620, 619
440, 656, 657, 666, 665, 611, 612, 621, 620
441, 658, 659, 668, 667, 613, 614, 623, 622
442, 659, 660, 669, 668, 614, 615, 624, 623
443, 660, 661, 670, 669, 615, 616, 625, 624
444, 661, 662, 671, 670, 616, 617, 626, 625
445, 662, 663, 672, 671, 617, 618, 627, 626
446, 663, 664, 673, 672, 618, 619, 628, 627
447, 664, 665, 674, 673, 619, 620, 629, 628
448, 665, 666, 675, 674, 620, 621, 630, 629
449, 676, 677, 686, 685, 631, 632, 641, 640
450, 677, 678, 687, 686, 632, 633, 642, 641
451, 678, 679, 688, 687, 633, 634, 643, 642
452, 679, 680, 689, 688, 634, 635, 644, 643
453, 680, 681, 690, 689, 635, 636, 645, 644
454, 681, 682, 691, 690, 636, 637, 646, 645
455, 682, 683, 692, 691, 637, 638, 647, 646
456, 683, 684, 693, 692, 638, 639, 648, 647
457, 685, 686, 695, 694, 640, 641, 650, 649
458, 686, 687, 696, 695, 641, 642, 651, 650
459, 687, 688, 697, 696, 642, 643, 652, 651
460, 688, 689, 698, 697, 643, 644, 653, 652
461, 689, 690, 699, 698, 644, 645, 654, 653
462, 690, 691, 700, 699, 645, 646, 655, 654
463, 691, 692, 701, 700, 646, 647, 656, 655
464, 692, 693, 702, 701, 647, 648, 657, 656
465, 694, 695, 704, 703, 649, 650, 659, 658
466, 695, 696, 705, 704, 650, 651, 660, 659
467, 696, 697, 706, 705, 651, 652, 661, 660
468, 697, 698, 707, 706, 652, 653, 662, 661
469, 698, 699, 708, 707, 653, 654, 663, 662
470, 699, 700, 709, 708, 654, 655, 664, 663
471, 700, 701, 710, 709, 655, 656, 665, 664
472, 701, 702, 711, 710, 656, 657, 666, 665
473, 703, 704, 713, 712, 658, 659, 668, 667
474, 704, 705, 714, 713, 659, 660, 669, 668
475, 705, 706, 715, 714, 660, 661, 670, 669
476, 706, 707, 716, 715, 661, 662, 671, 670
477, 707, 708, 717, 716, 662, 663, 672, 671
478, 708, 709, 718, 717, 663, 664, 673, 672
479, 709, 710, 719, 718, 664, 665, 674, 673
480, 710, 711, 720, 719, 665, 666, 675, 674
481, 721, 722, 731, 730, 676, 677, 686, 685
482, 722, 723, 732, 731, 677, 678, 687, 686
483, 723, 724, 733, 732, 678, 679, 688, 687
484, 724, 725, 734, 733, 679, 680, 689, 688
485, 725, 726, 735, 734, 680, 681, 690, 689
486, 726, 727, 736, 735, 681, 682, 691, 690
487, 727, 728, 737, 736, 682, 683, 692, 691
488, 728, 729, 738, 737, 683, 684, 693, 692
489, 730, 731, 740, 739, 685, 686, 695, 694
490, 731, 732, 741, 740, 686, 687, 696, 695
491, 732, 733, 742, 741, 687, 688, 697, 696
492, 733, 734, 743, 742, 688, 689, 698, 697
493, 734, 735, 744, 743, 689, 690, 699, 698
494, 735, 736, 745, 744, 690, 691, 700, 699
495, 736, 737, 746, 745, 691, 692, 701, 700
496, 737, 738, 747, 746, 692, 693, 702, 701
497, 739, 740, 749, 748, 694, 695, 704, 703
498, 740, 741, 750, 749, 695, 696, 705, 704
499, 741, 742, 751, 750, 696, 697, 706, 705
500, 742, 743, 752, 751, 697, 698, 707, 706
501, 743, 744, 753, 752, 698, 699, 708, 707
502, 744, 745, 754, 753, 699, 700, 709, 708
503, 745, 746, 755, 754, 700, 701, 710, 709
504, 746, 747, 756, 755, 701, 702, 711, 710
505, 748, 749, 758, 757, 703, 704, 713, 712
506, 749, 750, 759, 758, 704, 705, 714, 713
507, 750, 751, 760, 759, 705, 706, 715, 714
508, 751, 752, 761, 760, 706, 707, 716, 715
509, 752, 753, 762, 761, 707, 708, 717, 716
510, 753, 754, 763, 762, 708, 709, 718, 717
511, 754, 755, 764, 763, 709, 710, 719, 718
512, 755, 756, 765, 764, 710, 711, 720, 719
513, 766, 767, 776, 775, 721, 722, 731, 730
514, 767, 768, 777, 776, 722, 723, 732, 731
515, 768, 769, 778, 777, 723, 724, 733, 732
516, 769, 770, 779, 778, 724, 725, 734, 733
517, 770, 771, 780, 779, 725, 726, 735, 734
518, 771, 772, 781, 780, 726, 727, 736, 735
519, 772, 773, 782, 781, 727, 728, 737, 736
520, 773, 774, 783, 782, 728, 729, 738, 737
521, 775, 776, 785, 784, 730, 731, 740, 739
522, 776, 777, 786, 785, 731, 732, 741, 740
523, 777, 778, 787, 786, 732, 733, 742, 741
524, 778, 779, 788, 787, 733, 734, 743, 742
525, 779, 780, 789, 788, 734, 735, 744, 743
526, 780, 781, 790, 789, 735, 736, 745, 744
527, 781, 782, 791, 790, 736, 737, 746, 745
528, 782, 783, 792, 791, 737, 738, 747, 746
529, 784, 785, 794, 793, 739, 740, 749, 748
530, 785, 786, 795, 794, 740, 741, 750, 749
531, 786, 787, 796, 795, 741, 742, 751, 750
532, 787, 788, 797, 796, 742, 743, 752, 751
533, 788, 789, 798, 797, 743, 744, 753, 752
534, 789, 790, 799, 798, 744, 745, 754, 753
535, 790, 791, 800, 799, 745, 746, 755, 754
536, 791, 792, 801, 800, 746, 747, 756, 755
537, 793, 794, 803, 802, 748, 749, 758, 757
538, 794, 795, 804, 803, 749, 750, 759, 758
539, 795, 796, 805, 804, 750, 751, 760, 759
540, 796, 797, 806, 805, 751, 752, 761, 760
541, 797, 798, 807, 806, 752, 753, 762, 761
542, 798, 799, 808, 807, 753, 754, 763, 762
543, 799, 800, 809, 808, 754, 755, 764, 763
544, 800, 801, 810, 809, 755, 756, 765, 764
545, 811, 812, 821, 820, 766, 767, 776, 775
546, 812, 813, 822, 821, 767, 768, 777, 776
547, 813, 814, 823, 822, 768, 769, 778, 777
548, 814, 815, 824, 823, 769, 770, 779, 778
549, 815, 816, 825, 824, 770, 771, 780, 779
550, 816, 817, 826, 825, 771, 772, 781, 780
551, 817, 818, 827, 826, 772, 773, 782, 781
552, 818, 819, 828, 827, 773, 774, 783, 782
553, 820, 821, 830, 829, 775, 776, 785, 784
554, 821, 822, 831, 830, 776, 777, 786, 785
555, 822, 823, 832, 831, 777, 778, 787, 786
556, 823, 824, 833, 832, 778, 779, 788, 787
557, 824, 825, 834, 833, 779, 780, 789, 788
558, 825, 826, 835, 834, 780, 781, 790, 789
559, 826, 827, 836, 835, 781, 782, 791, 790
560, 827, 828, 837, 836, 782, 783, 792, 791
561, 829, 830, 839, 838, 784, 785, 794, 793
562, 830, 831, 840, 839, 785, 786, 795, 794
563, 831, 832, 841, 840, 786, 787, 796, 795
564, 832, 833, 842, 841, 787, 788, 797, 796
565, 833, 834, 843, 842, 788, 789, 798, 797
566, 834, 835, 844, 843, 789, 790, 799, 798
567, 835, 836, 845, 844, 790, 791, 800, 799
568, 836, 837, 846, 845, 791, 792, 801, 800
569, 838, 839, 848, 847, 793, 794, 803, 802
570, 839, 840, 849, 848, 794, 795, 804, 803
571, 840, 841, 850, 849, 795, 796, 805, 804
572, 841, 842, 851, 850, 796, 797, 806, 805
573, 842, 843, 852, 851, 797, 798, 807, 806
574, 843, 844, 853, 852, 798, 799, 808, 807
575, 844, 845, 854, 853, 799, 800, 809, 808
576, 845, 846, 855, 854, 800, 801, 810, 809
577, 856, 857, 866, 865, 811, 812, 821, 820
578, 857, 858, 867, 866, 812, 813, 822, 821
579, 858, 859, 868, 867, 813, 814, 823, 822
580, 859, 860, 869, 868, 814, 815, 824, 823
581, 860, 861, 870, 869, 815, 816, 825, 824
582, 861, 862, 871, 870, 816, 817, 826, 825
583, 862, 863, 872, 871, 817, 818, 827, 826
584, 863, 864, 873, 872, 818, 819, 828, 827
585, 865, 866, 875, 874, 820, 821, 830, 829
586, 866, 867, 876, 875, 821, 822, 831, 830
587, 867, 868, 877, 876, 822, 823, 832, 831
588, 868, 869, 878, 877, 823, 824, 833, 832
589, 869, 870, 879, 878, 824, 825, 834, 833
590, 870, 871, 880, 879, 825, 826, 835, 834
591, 871, 872, 881, 880, 826, 827, 836, 835
592, 872, 873, 882, 881, 827, 828, 837, 836
593, 874, 875, 884, 883, 829, 830, 839, 838
594, 875, 876, 885, 884, 830, 831, 840, 839
595, 876, 877, 886, 885, 831, 832, 841, 840
596, 877, 878, 887, 886, 832, 833, 842, 841
597, 878, 879, 888, 887, 833, 834, 843, 842
598, 879, 880, 889, 888, 834, 835, 844, 843
599, 880, 881, 890, 889, 835, 836, 845, 844
600, 881, 882, 891, 890, 836, 837, 846, 845
601, 883, 884, 893, 892, 838, 839, 848, 847
602, 884, 885, 894, 893, 839, 840, 849, 848
603, 885, 886, 895, 894, 840, 841, 850, 849
604, 886, 887, 896, 895, 841, 842, 851, 850
605, 887, 888, 897, 896, 842, 843, 852, 851
606, 888, 889, 898, 897, 843, 844, 853, 852
607, 889, 890, 899, 898, 844, 845, 854, 853
608, 890, 891, 900, 899, 845, 846, 855, 854
609, 901, 902, 911, 910, 856, 857, 866, 865
610, 902, 903, 912, 911, 857, 858, 867, 866
611, 903, 904, 913, 912, 858, 859, 868, 867
612, 904, 905, 914, 913, 859, 860, 869, 868
613, 905, 906, 915, 914, 860, 861, 870, 869
614, 906, 907, 916, 915, 861, 862, 871, 870
615, 907, 908, 917, 916, 862, 863, 872, 871
616, 908, 909, 918, 917, 863, 864, 873, 872
617, 910, 911, 920, 919, 865, 866, 875, 874
618, 911, 912, 921, 920, 866, 867, 876, 875
619, 912, 913, 922, 921, 867, 868, 877, 876
620, 913, 914, 923, 922, 868, 869, 878, 877
621, 914, 915, 924, 923, 869, 870, 879, 878
622, 915, 916, 925, 924, 870, 871, 880, 879
623, 916, 917, 926, 925, 871, 872, 881, 880
624, 917, 918, 927, 926, 872, 873, 882, 881
625, 919, 920, 929, 928, 874, 875, 884, 883
626, 920, 921, 930, 929, 875, 876, 885, 884
627, 921, 922, 931, 930, 876, 877, 886, 885
628, 922, 923, 932, 931, 877, 878, 887, 886
629, 923, 924, 933, 932, 878, 879, 888, 887
630, 924, 925, 934, 933, 879, 880, 889, 888
631, 925, 926, 935, 934, 880, 881, 890, 889
632, 926, 927, 936, 935, 881, 882, 891, 890
633, 928, 929, 938, 937, 883, 884, 893, 892
634, 929, 930, 939, 938, 884, 885, 894, 893
635, 930, 931, 940, 939, 885, 886, 895, 894
636, 931, 932, 941, 940, 886, 887, 896, 895
637, 932, 933, 942, 941, 887, 888, 897, 896
638, 933, 934, 943, 942, 888, 889, 898, 897
639, 934, 935, 944, 943, 889, 890, 899, 898
640, 935, 936, 945, 944, 890, 891, 900, 899
*Nset, nset=AllCells, generate
   1,  945,    1
*Elset, elset=AllCells, generate
   1,  640,    1
*Nset, nset=FixedFace, generate
 901,  945,    1
*Elset, elset=FixedFace, generate
 609,  640,    1
*Elset, elset=FrozenElems, generate
 609,  640,    1
*Elset, elset=_LoadSurface_S2, internal, generate
  1,  32,   1
*Surface, type=ELEMENT, name=LoadSurface
_LoadSurface_S2, S2
** Section: Section
*Solid Section, elset=AllCells, material=Steel
,
*End Part
**  
**
** ASSEMBLY
**
*Assembly, name=Assembly
**  
*Instance, name=Block-1, part=Block
*End Instance
**  
*End Assembly
** 
** MATERIALS
** 
*Material, name=Steel
*Density
 7.85e-09,
*Elastic
210000., 0.3
** 
** BOUNDARY CONDITIONS
** 
** Name: Fixed Type: Symmetry/Antisymmetry/Encastre
*Boundary
Block-1.FixedFace, ENCASTRE
** ----------------------------------------------------------------
** 
** STEP: LoadStep
** 
*Step, name=LoadStep, nlgeom=NO
*Static
1., 1., 1e-06, 1.
** 
** LOADS
** 
** Name: Load   Type: Pressure
*Dsload
Block-1.LoadSurface, P, 1.
** 
** OUTPUT REQUESTS
** 
*Restart, write, frequency=0
** 
** FIELD OUTPUT: F-Output-1
** 
*Output, field
*Node Output
RF, U
*Element Output, directions=YES
E, ENER, S
** 
** HISTORY OUTPUT: H-Output-1
** 
*Output, history, variable=PRESELECT
*End Step
