*Heading
** Job name: Block_FEA Model name: Block_TO
** Generated by: Abaqus/CAE 2025
*Preprint, echo=NO, model=NO, history=NO, contact=NO
**
** PARTS
**
*Part, name=Block
*Node
      1,         100.,          40.,          20.
      2,         100.,          30.,          20.
      3,         100.,          20.,          20.
      4,         100.,          10.,          20.
      5,         100.,           0.,          20.
      6,         100.,          40.,          10.
      7,         100.,          30.,          10.
      8,         100.,          20.,          10.
      9,         100.,          10.,          10.
     10,         100.,           0.,          10.
     11,         100.,          40.,           0.
     12,         100.,          30.,           0.
     13,         100.,          20.,           0.
     14,         100.,          10.,           0.
     15,         100.,           0.,           0.
     16,          90.,          40.,          20.
     17,          90.,          30.,          20.
     18,          90.,          20.,          20.
     19,          90.,          10.,          20.
     20,          90.,           0.,          20.
     21,          90.,          40.,          10.
     22,          90.,          30.,          10.
     23,          90.,          20.,          10.
     24,          90.,          10.,          10.
     25,          90.,           0.,          10.
     26,          90.,          40.,           0.
     27,          90.,          30.,           0.
     28,          90.,          20.,           0.
     29,          90.,          10.,           0.
     30,          90.,           0.,           0.
     31,          80.,          40.,          20.
     32,          80.,          30.,          20.
     33,          80.,          20.,          20.
     34,          80.,          10.,          20.
     35,          80.,           0.,          20.
     36,          80.,          40.,          10.
     37,          80.,          30.,          10.
     38,          80.,          20.,          10.
     39,          80.,          10.,          10.
     40,          80.,           0.,          10.
     41,          80.,          40.,           0.
     42,          80.,          30.,           0.
     43,          80.,          20.,           0.
     44,          80.,          10.,           0.
     45,          80.,           0.,           0.
     46,          70.,          40.,          20.
     47,          70.,          30.,          20.
     48,          70.,          20.,          20.
     49,          70.,          10.,          20.
     50,          70.,           0.,          20.
     51,          70.,          40.,          10.
     52,          70.,          30.,          10.
     53,          70.,          20.,          10.
     54,          70.,          10.,          10.
     55,          70.,           0.,          10.
     56,          70.,          40.,           0.
     57,          70.,          30.,           0.
     58,          70.,          20.,           0.
     59,          70.,          10.,           0.
     60,          70.,           0.,           0.
     61,          60.,          40.,          20.
     62,          60.,          30.,          20.
     63,          60.,          20.,          20.
     64,          60.,          10.,          20.
     65,          60.,           0.,          20.
     66,          60.,          40.,          10.
     67,          60.,          30.,          10.
     68,          60.,          20.,          10.
     69,          60.,          10.,          10.
     70,          60.,           0.,          10.
     71,          60.,          40.,           0.
     72,          60.,          30.,           0.
     73,          60.,          20.,           0.
     74,          60.,          10.,           0.
     75,          60.,           0.,           0.
     76,          50.,          40.,          20.
     77,          50.,          30.,          20.
     78,          50.,          20.,          20.
     79,          50.,          10.,          20.
     80,          50.,           0.,          20.
     81,          50.,          40.,          10.
     82,          50.,          30.,          10.
     83,          50.,          20.,          10.
     84,          50.,          10.,          10.
     85,          50.,           0.,          10.
     86,          50.,          40.,           0.
     87,          50.,          30.,           0.
     88,          50.,          20.,           0.
     89,          50.,          10.,           0.
     90,          50.,           0.,           0.
     91,          40.,          40.,          20.
     92,          40.,          30.,          20.
     93,          40.,          20.,          20.
     94,          40.,          10.,          20.
     95,          40.,           0.,          20.
     96,          40.,          40.,          10.
     97,          40.,          30.,          10.
     98,          40.,          20.,          10.
     99,          40.,          10.,          10.
    100,          40.,           0.,          10.
    101,          40.,          40.,           0.
    102,          40.,          30.,           0.
    103,          40.,          20.,           0.
    104,          40.,          10.,           0.
    105,          40.,           0.,           0.
    106,          30.,          40.,          20.
    107,          30.,          30.,          20.
    108,          30.,          20.,          20.
    109,          30.,          10.,          20.
    110,          30.,           0.,          20.
    111,          30.,          40.,          10.
    112,          30.,          30.,          10.
    113,          30.,          20.,          10.
    114,          30.,          10.,          10.
    115,          30.,           0.,          10.
    116,          30.,          40.,           0.
    117,          30.,          30.,           0.
    118,          30.,          20.,           0.
    119,          30.,          10.,           0.
    120,          30.,           0.,           0.
    121,          20.,          40.,          20.
    122,          20.,          30.,          20.
    123,          20.,          20.,          20.
    124,          20.,          10.,          20.
    125,          20.,           0.,          20.
    126,          20.,          40.,          10.
    127,          20.,          30.,          10.
    128,          20.,          20.,          10.
    129,          20.,          10.,          10.
    130,          20.,           0.,          10.
    131,          20.,          40.,           0.
    132,          20.,          30.,           0.
    133,          20.,          20.,           0.
    134,          20.,          10.,           0.
    135,          20.,           0.,           0.
    136,          10.,          40.,          20.
    137,          10.,          30.,          20.
    138,          10.,          20.,          20.
    139,          10.,          10.,          20.
    140,          10.,           0.,          20.
    141,          10.,          40.,          10.
    142,          10.,          30.,          10.
    143,          10.,          20.,          10.
    144,          10.,          10.,          10.
    145,          10.,           0.,          10.
    146,          10.,          40.,           0.
    147,          10.,          30.,           0.
    148,          10.,          20.,           0.
    149,          10.,          10.,           0.
    150,          10.,           0.,           0.
    151,           0.,          40.,          20.
    152,           0.,          30.,          20.
    153,           0.,          20.,          20.
    154,           0.,          10.,          20.
    155,           0.,           0.,          20.
    156,           0.,          40.,          10.
    157,           0.,          30.,          10.
    158,           0.,          20.,          10.
    159,           0.,          10.,          10.
    160,           0.,           0.,          10.
    161,           0.,          40.,           0.
    162,           0.,          30.,           0.
    163,           0.,          20.,           0.
    164,           0.,          10.,           0.
    165,           0.,           0.,           0.
*Element, type=C3D8R
 1,  16,  17,  22,  21,   1,   2,   7,   6
 2,  17,  18,  23,  22,   2,   3,   8,   7
 3,  18,  19,  24,  23,   3,   4,   9,   8
 4,  19,  20,  25,  24,   4,   5,  10,   9
 5,  21,  22,  27,  26,   6,   7,  12,  11
 6,  22,  23,  28,  27,   7,   8,  13,  12
 7,  23,  24,  29,  28,   8,   9,  14,  13
 8,  24,  25,  30,  29,   9,  10,  15,  14
 9,  31,  32,  37,  36,  16,  17,  22,  21
10,  32,  33,  38,  37,  17,  18,  23,  22
11,  33,  34,  39,  38,  18,  19,  24,  23
12,  34,  35,  40,  39,  19,  20,  25,  24
13,  36,  37,  42,  41,  21,  22,  27,  26
14,  37,  38,  43,  42,  22,  23,  28,  27
15,  38,  39,  44,  43,  23,  24,  29,  28
16,  39,  40,  45,  44,  24,  25,  30,  29
17,  46,  47,  52,  51,  31,  32,  37,  36
18,  47,  48,  53,  52,  32,  33,  38,  37
19,  48,  49,  54,  53,  33,  34,  39,  38
20,  49,  50,  55,  54,  34,  35,  40,  39
21,  51,  52,  57,  56,  36,  37,  42,  41
22,  52,  53,  58,  57,  37,  38,  43,  42
23,  53,  54,  59,  58,  38,  39,  44,  43
24,  54,  55,  60,  59,  39,  40,  45,  44
25,  61,  62,  67,  66,  46,  47,  52,  51
26,  62,  63,  68,  67,  47,  48,  53,  52
27,  63,  64,  69,  68,  48,  49,  54,  53
28,  64,  65,  70,  69,  49,  50,  55,  54
29,  66,  67,  72,  71,  51,  52,  57,  56
30,  67,  68,  73,  72,  52,  53,  58,  57
31,  68,  69,  74,  73,  53,  54,  59,  58
32,  69,  70,  75,  74,  54,  55,  60,  59
33,  76,  77,  82,  81,  61,  62,  67,  66
34,  77,  78,  83,  82,  62,  63,  68,  67
35,  78,  79,  84,  83,  63,  64,  69,  68
36,  79,  80,  85,  84,  64,  65,  70,  69
37,  81,  82,  87,  86,  66,  67,  72,  71
38,  82,  83,  88,  87,  67,  68,  73,  72
39,  83,  84,  89,  88,  68,  69,  74,  73
40,  84,  85,  90,  89,  69,  70,  75,  74
41,  91,  92,  97,  96,  76,  77,  82,  81
42,  92,  93,  98,  97,  77,  78,  83,  82
43,  93,  94,  99,  98,  78,  79,  84,  83
44,  94,  95, 100,  99,  79,  80,  85,  84
45,  96,  97, 102, 101,  81,  82,  87,  86
46,  97,  98, 103, 102,  82,  83,  88,  87
47,  98,  99, 104, 103,  83,  84,  89,  88
48,  99, 100, 105, 104,  84,  85,  90,  89
49, 106, 107, 112, 111,  91,  92,  97,  96
50, 107, 108, 113, 112,  92,  93,  98,  97
51, 108, 109, 114, 113,  93,  94,  99,  98
52, 109, 110, 115, 114,  94,  95, 100,  99
53, 111, 112, 117, 116,  96,  97, 102, 101
54, 112, 113, 118, 117,  97,  98, 103, 102
55, 113, 114, 119, 118,  98,  99, 104, 103
56, 114, 115, 120, 119,  99, 100, 105, 104
57, 121, 122, 127, 126, 106, 107, 112, 111
58, 122, 123, 128, 127, 107, 108, 113, 112
59, 123, 124, 129, 128, 108, 109, 114, 113
60, 124, 125, 130, 129, 109, 110, 115, 114
61, 126, 127, 132, 131, 111, 112, 117, 116
62, 127, 128, 133, 132, 112, 113, 118, 117
63, 128, 129, 134, 133, 113, 114, 119, 118
64, 129, 130, 135, 134, 114, 115, 120, 119
65, 136, 137, 142, 141, 121, 122, 127, 126
66, 137, 138, 143, 142, 122, 123, 128, 127
67, 138, 139, 144, 143, 123, 124, 129, 128
68, 139, 140, 145, 144, 124, 125, 130, 129
69, 141, 142, 147, 146, 126, 127, 132, 131
70, 142, 143, 148, 147, 127, 128, 133, 132
71, 143, 144, 149, 148, 128, 129, 134, 133
72, 144, 145, 150, 149, 129, 130, 135, 134
73, 151, 152, 157, 156, 136, 137, 142, 141
74, 152, 153, 158, 157, 137, 138, 143, 142
75, 153, 154, 159, 158, 138, 139, 144, 143
76, 154, 155, 160, 159, 139, 140, 145, 144
77, 156, 157, 162, 161, 141, 142, 147, 146
78, 157, 158, 163, 162, 142, 143, 148, 147
79, 158, 159, 164, 163, 143, 144, 149, 148
80, 159, 160, 165, 164, 144, 145, 150, 149
*Nset, nset=AllCells, generate
   1,  165,    1
*Elset, elset=AllCells, generate
  1,  80,   1
** Section: Section
*Solid Section, elset=AllCells, material=Steel
,
*End Part
**  
**
** ASSEMBLY
**
*Assembly, name=Assembly
**  
*Instance, name=Block-1, part=Block
*End Instance
**  
*Nset, nset=FixedFace, instance=Block-1, generate
 151,  165,    1
*Elset, elset=FixedFace, instance=Block-1, generate
 73,  80,   1
*Elset, elset=FrozenElements, instance=Block-1, generate
 73,  80,   1
*Elset, elset=_LoadSurface_S2, internal, instance=Block-1, generate
 1,  8,  1
*Surface, type=ELEMENT, name=LoadSurface
_LoadSurface_S2, S2
*End Assembly
** 
** MATERIALS
** 
*Material, name=Steel
*Density
 7.85e-09,
*Elastic
210000., 0.3
** 
** BOUNDARY CONDITIONS
** 
** Name: Fixed Type: Symmetry/Antisymmetry/Encastre
*Boundary
FixedFace, ENCASTRE
** ----------------------------------------------------------------
** 
** STEP: LoadStep
** 
*Step, name=LoadStep, nlgeom=NO
*Static
1., 1., 1e-06, 1.
** 
** LOADS
** 
** Name: Load   Type: Pressure
*Dsload
LoadSurface, P, 1.
** 
** OUTPUT REQUESTS
** 
*Restart, write, frequency=0
** 
** FIELD OUTPUT: F-Output-1
** 
*Output, field
*Node Output
RF, U
*Element Output, directions=YES
ENER, S
** 
** HISTORY OUTPUT: H-Output-1
** 
*Output, history, variable=PRESELECT
*End Step
