*Heading
** Job name: Experiment5_FEA Model name: Experiment5_TO
** Generated by: Abaqus/CAE 2025
*Preprint, echo=NO, model=NO, history=NO, contact=NO
**
** PARTS
**
*Part, name=TO_Specimen
*Node
      1,  -14.3000002,           0.,          25.
      2,  -32.2999992,           0.,          25.
      3,  -32.2999992,           0.,           0.
      4,  -14.3000002,           0.,           0.
      5,  -32.2999992,          28.,           0.
      6,  -14.3000002,          28.,           0.
      7,  -14.3000002,          28.,          25.
      8,  -32.2999992,          28.,          25.
      9,  -14.3000002,          14.,   18.8500004
     10,  -32.2999992,          14.,   18.8500004
     11,           9.,   118.169998,          25.
     12,           9.,   118.169998,           0.
     13,          -9.,   118.169998,           0.
     14,          -9.,   118.169998,          25.
     15,           5.,   106.169998,          25.
     16,           5.,   106.169998,           0.
     17,   32.2999992,          28.,          25.
     18,   32.2999992,          28.,           0.
     19,   14.3000002,          28.,           0.
     20,   14.3000002,          28.,          25.
     21,           4.,          63.,          25.
     22,           4.,          63.,           0.
     23,          -4.,          63.,          25.
     24,          -4.,          63.,           0.
     25,          -5.,   106.169998,           0.
     26,          -5.,   106.169998,          25.
     27,          -9.,   146.169998,          25.
     28,           9.,   146.169998,          25.
     29,           9.,   146.169998,           0.
     30,          -9.,   146.169998,           0.
     31,          -9.,   132.169998,   18.8500004
     32,           9.,   132.169998,   18.8500004
     33,   14.3000002,          14.,   18.8500004
     34,   32.2999992,          14.,   18.8500004
     35,   32.2999992,           0.,          25.
     36,   32.2999992,           0.,           0.
     37,   14.3000002,           0.,           0.
     38,   14.3000002,           0.,          25.
     39,  -17.2999992,           0.,          25.
     40,  -20.2999992,           0.,          25.
     41,  -23.2999992,           0.,          25.
     42,  -26.2999992,           0.,          25.
     43,  -29.2999992,           0.,          25.
     44,  -32.2999992,           0.,       21.875
     45,  -32.2999992,           0.,        18.75
     46,  -32.2999992,           0.,       15.625
     47,  -32.2999992,           0.,         12.5
     48,  -32.2999992,           0.,        9.375
     49,  -32.2999992,           0.,         6.25
     50,  -32.2999992,           0.,        3.125
     51,  -29.2999992,           0.,           0.
     52,  -26.2999992,           0.,           0.
     53,  -23.2999992,           0.,           0.
     54,  -20.2999992,           0.,           0.
     55,  -17.2999992,           0.,           0.
     56,  -14.3000002,           0.,        3.125
     57,  -14.3000002,           0.,         6.25
     58,  -14.3000002,           0.,        9.375
     59,  -14.3000002,           0.,         12.5
     60,  -14.3000002,           0.,       15.625
     61,  -14.3000002,           0.,        18.75
     62,  -14.3000002,           0.,       21.875
     63,  -29.2999992,          28.,           0.
     64,  -26.2999992,          28.,           0.
     65,  -23.2999992,          28.,           0.
     66,  -20.2999992,          28.,           0.
     67,  -17.2999992,          28.,           0.
     68,  -14.3000002,   24.8888893,           0.
     69,  -14.3000002,   21.7777786,           0.
     70,  -14.3000002,    18.666666,           0.
     71,  -14.3000002,   15.5555553,           0.
     72,  -14.3000002,   12.4444447,           0.
     73,  -14.3000002,   9.33333302,           0.
     74,  -14.3000002,   6.22222233,           0.
     75,  -14.3000002,   3.11111116,           0.
     76,  -32.2999992,   3.11111116,           0.
     77,  -32.2999992,   6.22222233,           0.
     78,  -32.2999992,   9.33333302,           0.
     79,  -32.2999992,   12.4444447,           0.
     80,  -32.2999992,   15.5555553,           0.
     81,  -32.2999992,    18.666666,           0.
     82,  -32.2999992,   21.7777786,           0.
     83,  -32.2999992,   24.8888893,           0.
     84,  -14.3000002,          28.,       21.875
     85,  -14.3000002,          28.,        18.75
     86,  -14.3000002,          28.,       15.625
     87,  -14.3000002,          28.,         12.5
     88,  -14.3000002,          28.,        9.375
     89,  -14.3000002,          28.,         6.25
     90,  -14.3000002,          28.,        3.125
     91,  -32.2999992,          28.,        3.125
     92,  -32.2999992,          28.,         6.25
     93,  -32.2999992,          28.,        9.375
     94,  -32.2999992,          28.,         12.5
     95,  -32.2999992,          28.,       15.625
     96,  -32.2999992,          28.,        18.75
     97,  -32.2999992,          28.,       21.875
     98,  -29.2999992,          28.,          25.
     99,  -26.2999992,          28.,          25.
    100,  -23.2999992,          28.,          25.
    101,  -20.2999992,          28.,          25.
    102,  -17.2999992,          28.,          25.
    103,  -32.2999992,   24.8888893,          25.
    104,  -32.2999992,   21.7777786,          25.
    105,  -32.2999992,    18.666666,          25.
    106,  -32.2999992,   15.5555553,          25.
    107,  -32.2999992,   12.4444447,          25.
    108,  -32.2999992,   9.33333302,          25.
    109,  -32.2999992,   6.22222233,          25.
    110,  -32.2999992,   3.11111116,          25.
    111,  -14.3000002,   3.11111116,          25.
    112,  -14.3000002,   6.22222233,          25.
    113,  -14.3000002,   9.33333302,          25.
    114,  -14.3000002,   12.4444447,          25.
    115,  -14.3000002,   15.5555553,          25.
    116,  -14.3000002,    18.666666,          25.
    117,  -14.3000002,   21.7777786,          25.
    118,  -14.3000002,   24.8888893,          25.
    119,  -14.3000002,   16.9509926,   18.1226463
    120,  -14.3000002,   19.2259483,   16.1072121
    121,  -14.3000002,   20.3037014,   13.2654076
    122,  -14.3000002,   19.9373531,   10.2482586
    123,  -14.3000002,   18.2108288,   7.74695683
    124,  -14.3000002,   15.5196543,   6.33451939
    125,  -14.3000002,   12.4803457,   6.33451939
    126,  -14.3000002,   9.78917122,   7.74695683
    127,  -14.3000002,   8.06264687,   10.2482586
    128,  -14.3000002,    7.6962986,   13.2654076
    129,  -14.3000002,   8.77405262,   16.1072121
    130,  -14.3000002,   11.0490074,   18.1226463
    131,  -32.2999992,   11.0490074,   18.1226463
    132,  -32.2999992,   8.77405262,   16.1072121
    133,  -32.2999992,    7.6962986,   13.2654076
    134,  -32.2999992,   8.06264687,   10.2482586
    135,  -32.2999992,   9.78917122,   7.74695683
    136,  -32.2999992,   12.4803457,   6.33451939
    137,  -32.2999992,   15.5196543,   6.33451939
    138,  -32.2999992,   18.2108288,   7.74695683
    139,  -32.2999992,   19.9373531,   10.2482586
    140,  -32.2999992,   20.3037014,   13.2654076
    141,  -32.2999992,   19.2259483,   16.1072121
    142,  -32.2999992,   16.9509926,   18.1226463
    143,           9.,   118.169998,       21.875
    144,           9.,   118.169998,        18.75
    145,           9.,   118.169998,       15.625
    146,           9.,   118.169998,         12.5
    147,           9.,   118.169998,        9.375
    148,           9.,   118.169998,         6.25
    149,           9.,   118.169998,        3.125
    150,           6.,   118.169998,           0.
    151,           3.,   118.169998,           0.
    152,           0.,   118.169998,           0.
    153,          -3.,   118.169998,           0.
    154,          -6.,   118.169998,           0.
    155,          -9.,   118.169998,        3.125
    156,          -9.,   118.169998,         6.25
    157,          -9.,   118.169998,        9.375
    158,          -9.,   118.169998,         12.5
    159,          -9.,   118.169998,       15.625
    160,          -9.,   118.169998,        18.75
    161,          -9.,   118.169998,       21.875
    162,          -6.,   118.169998,          25.
    163,          -3.,   118.169998,          25.
    164,           0.,   118.169998,          25.
    165,           3.,   118.169998,          25.
    166,           6.,   118.169998,          25.
    167,           8.,   115.169998,          25.
    168,           7.,   112.169998,          25.
    169,           6.,   109.169998,          25.
    170,           5.,   106.169998,       21.875
    171,           5.,   106.169998,        18.75
    172,           5.,   106.169998,       15.625
    173,           5.,   106.169998,         12.5
    174,           5.,   106.169998,        9.375
    175,           5.,   106.169998,         6.25
    176,           5.,   106.169998,        3.125
    177,           6.,   109.169998,           0.
    178,           7.,   112.169998,           0.
    179,           8.,   115.169998,           0.
    180,   6.01004934,   103.357239,          25.
    181,   7.03191566,   100.548752,          25.
    182,    8.0773716,     97.74897,          25.
    183,   9.15809345,   94.9626236,          25.
    184,   10.2855749,   92.1948929,          25.
    185,   11.4710112,   89.4514999,          25.
    186,   12.7251282,   86.7388458,          25.
    187,   14.0554104,   84.0627289,          25.
    188,    15.449358,   81.4191589,          25.
    189,   16.8861961,   78.7986221,          25.
    190,   18.3459301,   76.1907501,          25.
    191,   19.8090057,   73.5847473,          25.
    192,   21.2558441,   70.9697113,          25.
    193,   22.6663513,   68.3349304,          25.
    194,    24.019474,   65.6702728,          25.
    195,   25.2928486,   62.9666634,          25.
    196,   26.4626446,   60.2167358,          25.
    197,   27.5038128,   57.4156799,          25.
    198,   28.4016361,   54.5654221,          25.
    199,   29.1662045,   51.6765022,          25.
    200,   29.8121796,   48.7587166,          25.
    201,   30.3549614,   45.8199348,          25.
    202,   30.8101463,   42.8662758,          25.
    203,   31.1931705,   39.9023628,          25.
    204,   31.5191345,   36.9316063,          25.
    205,    31.802742,   33.9564934,          25.
    206,   32.0583382,   30.9788303,          25.
    207,   32.2999992,          28.,       21.875
    208,   32.2999992,          28.,        18.75
    209,   32.2999992,          28.,       15.625
    210,   32.2999992,          28.,         12.5
    211,   32.2999992,          28.,        9.375
    212,   32.2999992,          28.,         6.25
    213,   32.2999992,          28.,        3.125
    214,   32.0583382,   30.9788342,           0.
    215,    31.802742,   33.9564972,           0.
    216,   31.5191345,   36.9316101,           0.
    217,   31.1931705,   39.9023628,           0.
    218,   30.8101463,   42.8662758,           0.
    219,   30.3549614,   45.8199348,           0.
    220,   29.8121796,   48.7587166,           0.
    221,   29.1662045,   51.6765022,           0.
    222,   28.4016361,   54.5654221,           0.
    223,   27.5038128,   57.4156761,           0.
    224,   26.4626446,    60.216732,           0.
    225,   25.2928486,   62.9666595,           0.
    226,   24.0194759,   65.6702728,           0.
    227,   22.6663532,   68.3349304,           0.
    228,    21.255846,   70.9697113,           0.
    229,   19.8090076,   73.5847473,           0.
    230,   18.3459301,   76.1907501,           0.
    231,   16.8861961,   78.7986221,           0.
    232,   15.4493589,   81.4191589,           0.
    233,   14.0554104,   84.0627289,           0.
    234,   12.7251291,   86.7388458,           0.
    235,   11.4710121,   89.4514999,           0.
    236,   10.2855759,   92.1948853,           0.
    237,   9.15809345,   94.9626236,           0.
    238,   8.07737255,     97.74897,           0.
    239,   7.03191614,   100.548752,           0.
    240,    6.0100503,   103.357239,           0.
    241,   29.2999992,          28.,           0.
    242,   26.2999992,          28.,           0.
    243,   23.2999992,          28.,           0.
    244,   20.2999992,          28.,           0.
    245,   17.2999992,          28.,           0.
    246,   14.3000002,          28.,        3.125
    247,   14.3000002,          28.,         6.25
    248,   14.3000002,          28.,        9.375
    249,   14.3000002,          28.,         12.5
    250,   14.3000002,          28.,       15.625
    251,   14.3000002,          28.,        18.75
    252,   14.3000002,          28.,       21.875
    253,   17.2999992,          28.,          25.
    254,   20.2999992,          28.,          25.
    255,   23.2999992,          28.,          25.
    256,   26.2999992,          28.,          25.
    257,   29.2999992,          28.,          25.
    258,   15.2427797,   30.8723392,          25.
    259,   16.1439266,   33.7579803,          25.
    260,    16.966547,   36.6669006,          25.
    261,   17.6821995,   39.6038933,          25.
    262,   18.2726917,   42.5685463,          25.
    263,   18.7298241,   45.5566597,          25.
    264,   19.0535583,   48.5621643,          25.
    265,   19.2495289,   51.5787277,          25.
    266,   19.3269291,   54.6006927,          25.
    267,   19.2994671,   57.6235657,          25.
    268,   19.1762447,    60.644062,          25.
    269,   18.9565392,   63.6590614,          25.
    270,   18.6299095,   66.6643066,          25.
    271,   18.1719055,   69.6522217,          25.
    272,   17.5297565,   72.6055984,          25.
    273,   16.5697403,    75.469017,          25.
    274,   15.3215208,    77.432518,          25.
    275,   14.2318592,   77.9942398,          25.
    276,   13.0565844,   77.6817551,          25.
    277,   11.2658129,    75.991684,          25.
    278,   9.56486702,   73.5447617,          25.
    279,   8.06677628,   70.9669418,          25.
    280,   6.66861153,   68.3332901,          25.
    281,   5.32278347,   65.6724091,          25.
    282,           4.,          63.,       21.875
    283,           4.,          63.,        18.75
    284,           4.,          63.,       15.625
    285,           4.,          63.,         12.5
    286,           4.,          63.,        9.375
    287,           4.,          63.,         6.25
    288,           4.,          63.,        3.125
    289,   5.32277966,   65.6724014,           0.
    290,   6.66859531,   68.3332596,           0.
    291,   8.06675911,   70.9669113,           0.
    292,   9.56485176,   73.5447388,           0.
    293,   11.2657986,   75.9916687,           0.
    294,   13.0565634,   77.6817474,           0.
    295,   14.2318335,   77.9942474,           0.
    296,   15.3215027,   77.4325333,           0.
    297,   16.5697308,   75.4690399,           0.
    298,   17.5297508,   72.6056213,           0.
    299,   18.1719017,   69.6522369,           0.
    300,   18.6299076,   66.6643219,           0.
    301,   18.9565392,   63.6590729,           0.
    302,   19.1762447,   60.6440735,           0.
    303,   19.2994671,   57.6235771,           0.
    304,   19.3269291,   54.6007042,           0.
    305,   19.2495289,   51.5787392,           0.
    306,   19.0535603,   48.5621796,           0.
    307,    18.729826,   45.5566711,           0.
    308,   18.2726955,   42.5685616,           0.
    309,   17.6822033,   39.6039085,           0.
    310,   16.9665527,   36.6669159,           0.
    311,   16.1439304,   33.7579956,           0.
    312,   15.2427855,   30.8723564,           0.
    313,   1.33333337,          63.,          25.
    314,  -1.33333337,          63.,          25.
    315,          -4.,          63.,       21.875
    316,          -4.,          63.,        18.75
    317,          -4.,          63.,       15.625
    318,          -4.,          63.,         12.5
    319,          -4.,          63.,        9.375
    320,          -4.,          63.,         6.25
    321,          -4.,          63.,        3.125
    322,  -1.33333337,          63.,           0.
    323,   1.33333337,          63.,           0.
    324,  -5.32278872,   65.6724167,          25.
    325,  -6.66860437,   68.3332748,          25.
    326,  -8.06676865,   70.9669266,          25.
    327,  -9.56486225,    73.544754,          25.
    328,    -11.26581,    75.991684,          25.
    329,  -13.0565786,   77.6817551,          25.
    330,  -14.2318525,   77.9942398,          25.
    331,   -15.321517,    77.432518,          25.
    332,  -16.5697384,   75.4690247,          25.
    333,  -17.5297565,   72.6055984,          25.
    334,  -18.1719055,   69.6522217,          25.
    335,  -18.6299095,   66.6643066,          25.
    336,  -18.9565392,   63.6590576,          25.
    337,  -19.1762447,    60.644062,          25.
    338,  -19.2994671,   57.6235695,          25.
    339,  -19.3269291,   54.6007042,          25.
    340,  -19.2495289,   51.5787392,          25.
    341,  -19.0535603,   48.5621796,          25.
    342,   -18.729826,   45.5566711,          25.
    343,  -18.2726955,   42.5685616,          25.
    344,  -17.6822033,   39.6039124,          25.
    345,  -16.9665527,   36.6669159,          25.
    346,  -16.1439304,   33.7579956,          25.
    347,  -15.2427855,   30.8723564,          25.
    348,  -15.2427855,   30.8723564,           0.
    349,  -16.1439304,   33.7579956,           0.
    350,  -16.9665527,   36.6669159,           0.
    351,  -17.6822033,   39.6039124,           0.
    352,  -18.2726955,   42.5685616,           0.
    353,   -18.729826,    45.556675,           0.
    354,  -19.0535603,   48.5621796,           0.
    355,  -19.2495289,    51.578743,           0.
    356,  -19.3269291,    54.600708,           0.
    357,  -19.2994671,   57.6235809,           0.
    358,  -19.1762447,   60.6440773,           0.
    359,  -18.9565372,   63.6590767,           0.
    360,  -18.6299076,   66.6643219,           0.
    361,  -18.1719017,   69.6522369,           0.
    362,  -17.5297508,   72.6056213,           0.
    363,  -16.5697327,   75.4690399,           0.
    364,  -15.3215046,   77.4325333,           0.
    365,  -14.2318373,   77.9942398,           0.
    366,  -13.0565662,   77.6817474,           0.
    367,  -11.2657995,   75.9916687,           0.
    368,  -9.56485271,   73.5447388,           0.
    369,  -8.06676292,   70.9669189,           0.
    370,  -6.66859865,   68.3332672,           0.
    371,  -5.32278347,   65.6724091,           0.
    372,  -32.0583382,   30.9788303,           0.
    373,   -31.802742,   33.9564934,           0.
    374,  -31.5191345,   36.9316063,           0.
    375,  -31.1931705,   39.9023628,           0.
    376,  -30.8101463,   42.8662758,           0.
    377,  -30.3549614,   45.8199348,           0.
    378,  -29.8121796,   48.7587166,           0.
    379,  -29.1662045,   51.6765022,           0.
    380,  -28.4016361,   54.5654221,           0.
    381,  -27.5038128,   57.4156799,           0.
    382,  -26.4626446,   60.2167358,           0.
    383,  -25.2928486,   62.9666595,           0.
    384,  -24.0194759,   65.6702728,           0.
    385,  -22.6663532,   68.3349304,           0.
    386,   -21.255846,   70.9697113,           0.
    387,  -19.8090076,   73.5847473,           0.
    388,  -18.3459301,   76.1907501,           0.
    389,  -16.8861961,   78.7986221,           0.
    390,  -15.4493599,   81.4191589,           0.
    391,  -14.0554113,   84.0627289,           0.
    392,  -12.7251301,   86.7388458,           0.
    393,  -11.4710131,   89.4514999,           0.
    394,  -10.2855768,   92.1948853,           0.
    395,  -9.15809441,   94.9626236,           0.
    396,   -8.0773735,   97.7489624,           0.
    397,   -7.0319171,   100.548752,           0.
    398,  -6.01005077,   103.357239,           0.
    399,          -6.,   109.169998,           0.
    400,          -7.,   112.169998,           0.
    401,          -8.,   115.169998,           0.
    402,          -6.,   109.169998,          25.
    403,          -7.,   112.169998,          25.
    404,          -8.,   115.169998,          25.
    405,          -5.,   106.169998,        3.125
    406,          -5.,   106.169998,         6.25
    407,          -5.,   106.169998,        9.375
    408,          -5.,   106.169998,         12.5
    409,          -5.,   106.169998,       15.625
    410,          -5.,   106.169998,        18.75
    411,          -5.,   106.169998,       21.875
    412,   -6.0100503,   103.357239,          25.
    413,  -7.03191614,   100.548752,          25.
    414,  -8.07737255,     97.74897,          25.
    415,  -9.15809345,   94.9626236,          25.
    416,  -10.2855759,   92.1948853,          25.
    417,  -11.4710121,   89.4514999,          25.
    418,  -12.7251291,   86.7388458,          25.
    419,  -14.0554104,   84.0627289,          25.
    420,  -15.4493589,   81.4191589,          25.
    421,  -16.8861961,   78.7986221,          25.
    422,  -18.3459301,   76.1907501,          25.
    423,  -19.8090076,   73.5847473,          25.
    424,   -21.255846,   70.9697113,          25.
    425,  -22.6663532,   68.3349304,          25.
    426,  -24.0194759,   65.6702652,          25.
    427,  -25.2928505,   62.9666557,          25.
    428,  -26.4626465,    60.216732,          25.
    429,  -27.5038147,   57.4156723,          25.
    430,  -28.4016361,   54.5654182,          25.
    431,  -29.1662064,   51.6764984,          25.
    432,  -29.8121796,   48.7587128,          25.
    433,  -30.3549633,    45.819931,          25.
    434,  -30.8101463,    42.866272,          25.
    435,  -31.1931705,    39.902359,          25.
    436,  -31.5191345,   36.9316063,          25.
    437,   -31.802742,   33.9564934,          25.
    438,  -32.0583382,   30.9788284,          25.
    439,          -6.,   146.169998,          25.
    440,          -3.,   146.169998,          25.
    441,           0.,   146.169998,          25.
    442,           3.,   146.169998,          25.
    443,           6.,   146.169998,          25.
    444,           9.,   146.169998,       21.875
    445,           9.,   146.169998,        18.75
    446,           9.,   146.169998,       15.625
    447,           9.,   146.169998,         12.5
    448,           9.,   146.169998,        9.375
    449,           9.,   146.169998,         6.25
    450,           9.,   146.169998,        3.125
    451,           6.,   146.169998,           0.
    452,           3.,   146.169998,           0.
    453,           0.,   146.169998,           0.
    454,          -3.,   146.169998,           0.
    455,          -6.,   146.169998,           0.
    456,          -9.,   146.169998,        3.125
    457,          -9.,   146.169998,         6.25
    458,          -9.,   146.169998,        9.375
    459,          -9.,   146.169998,         12.5
    460,          -9.,   146.169998,       15.625
    461,          -9.,   146.169998,        18.75
    462,          -9.,   146.169998,       21.875
    463,          -9.,   129.219009,   18.1226463
    464,          -9.,   126.944054,   16.1072121
    465,          -9.,   125.866295,   13.2654076
    466,          -9.,   126.232643,   10.2482586
    467,          -9.,   127.959167,   7.74695683
    468,          -9.,   130.650345,   6.33451939
    469,          -9.,   133.689651,   6.33451939
    470,          -9.,   136.380829,   7.74695683
    471,          -9.,   138.107346,   10.2482586
    472,          -9.,   138.473694,   13.2654076
    473,          -9.,    137.39595,   16.1072121
    474,          -9.,   135.120987,   18.1226463
    475,           9.,   135.120987,   18.1226463
    476,           9.,    137.39595,   16.1072121
    477,           9.,   138.473694,   13.2654076
    478,           9.,   138.107346,   10.2482586
    479,           9.,   136.380829,   7.74695683
    480,           9.,   133.689651,   6.33451939
    481,           9.,   130.650345,   6.33451939
    482,           9.,   127.959167,   7.74695683
    483,           9.,   126.232643,   10.2482586
    484,           9.,   125.866295,   13.2654076
    485,           9.,   126.944054,   16.1072121
    486,           9.,   129.219009,   18.1226463
    487,           9.,   121.281113,          25.
    488,           9.,    124.39222,          25.
    489,           9.,   127.503334,          25.
    490,           9.,   130.614441,          25.
    491,           9.,   133.725555,          25.
    492,           9.,    136.83667,          25.
    493,           9.,   139.947784,          25.
    494,           9.,   143.058884,          25.
    495,          -9.,   143.058884,          25.
    496,          -9.,   139.947784,          25.
    497,          -9.,    136.83667,          25.
    498,          -9.,   133.725555,          25.
    499,          -9.,   130.614441,          25.
    500,          -9.,   127.503334,          25.
    501,          -9.,    124.39222,          25.
    502,          -9.,   121.281113,          25.
    503,          -9.,   143.058884,           0.
    504,          -9.,   139.947784,           0.
    505,          -9.,    136.83667,           0.
    506,          -9.,   133.725555,           0.
    507,          -9.,   130.614441,           0.
    508,          -9.,   127.503334,           0.
    509,          -9.,    124.39222,           0.
    510,          -9.,   121.281113,           0.
    511,           9.,   143.058884,           0.
    512,           9.,   139.947784,           0.
    513,           9.,    136.83667,           0.
    514,           9.,   133.725555,           0.
    515,           9.,   130.614441,           0.
    516,           9.,   127.503334,           0.
    517,           9.,    124.39222,           0.
    518,           9.,   121.281113,           0.
    519,   14.3000002,   11.0490074,   18.1226463
    520,   14.3000002,   8.77405262,   16.1072121
    521,   14.3000002,    7.6962986,   13.2654076
    522,   14.3000002,   8.06264687,   10.2482586
    523,   14.3000002,   9.78917122,   7.74695683
    524,   14.3000002,   12.4803457,   6.33451939
    525,   14.3000002,   15.5196543,   6.33451939
    526,   14.3000002,   18.2108288,   7.74695683
    527,   14.3000002,   19.9373531,   10.2482586
    528,   14.3000002,   20.3037014,   13.2654076
    529,   14.3000002,   19.2259483,   16.1072121
    530,   14.3000002,   16.9509926,   18.1226463
    531,   32.2999992,   16.9509926,   18.1226463
    532,   32.2999992,   19.2259483,   16.1072121
    533,   32.2999992,   20.3037014,   13.2654076
    534,   32.2999992,   19.9373531,   10.2482586
    535,   32.2999992,   18.2108288,   7.74695683
    536,   32.2999992,   15.5196543,   6.33451939
    537,   32.2999992,   12.4803457,   6.33451939
    538,   32.2999992,   9.78917122,   7.74695683
    539,   32.2999992,   8.06264687,   10.2482586
    540,   32.2999992,    7.6962986,   13.2654076
    541,   32.2999992,   8.77405262,   16.1072121
    542,   32.2999992,   11.0490074,   18.1226463
    543,   32.2999992,   24.8888893,          25.
    544,   32.2999992,   21.7777786,          25.
    545,   32.2999992,    18.666666,          25.
    546,   32.2999992,   15.5555553,          25.
    547,   32.2999992,   12.4444447,          25.
    548,   32.2999992,   9.33333302,          25.
    549,   32.2999992,   6.22222233,          25.
    550,   32.2999992,   3.11111116,          25.
    551,   32.2999992,           0.,       21.875
    552,   32.2999992,           0.,        18.75
    553,   32.2999992,           0.,       15.625
    554,   32.2999992,           0.,         12.5
    555,   32.2999992,           0.,        9.375
    556,   32.2999992,           0.,         6.25
    557,   32.2999992,           0.,        3.125
    558,   32.2999992,   3.11111116,           0.
    559,   32.2999992,   6.22222233,           0.
    560,   32.2999992,   9.33333302,           0.
    561,   32.2999992,   12.4444447,           0.
    562,   32.2999992,   15.5555553,           0.
    563,   32.2999992,    18.666666,           0.
    564,   32.2999992,   21.7777786,           0.
    565,   32.2999992,   24.8888893,           0.
    566,   29.2999992,           0.,           0.
    567,   26.2999992,           0.,           0.
    568,   23.2999992,           0.,           0.
    569,   20.2999992,           0.,           0.
    570,   17.2999992,           0.,           0.
    571,   14.3000002,   3.11111116,           0.
    572,   14.3000002,   6.22222233,           0.
    573,   14.3000002,   9.33333302,           0.
    574,   14.3000002,   12.4444447,           0.
    575,   14.3000002,   15.5555553,           0.
    576,   14.3000002,    18.666666,           0.
    577,   14.3000002,   21.7777786,           0.
    578,   14.3000002,   24.8888893,           0.
    579,   14.3000002,   3.11111116,          25.
    580,   14.3000002,   6.22222233,          25.
    581,   14.3000002,   9.33333302,          25.
    582,   14.3000002,   12.4444447,          25.
    583,   14.3000002,   15.5555553,          25.
    584,   14.3000002,    18.666666,          25.
    585,   14.3000002,   21.7777786,          25.
    586,   14.3000002,   24.8888893,          25.
    587,   14.3000002,           0.,        3.125
    588,   14.3000002,           0.,         6.25
    589,   14.3000002,           0.,        9.375
    590,   14.3000002,           0.,         12.5
    591,   14.3000002,           0.,       15.625
    592,   14.3000002,           0.,        18.75
    593,   14.3000002,           0.,       21.875
    594,   17.2999992,           0.,          25.
    595,   20.2999992,           0.,          25.
    596,   23.2999992,           0.,          25.
    597,   26.2999992,           0.,          25.
    598,   29.2999992,           0.,          25.
    599,  -17.2999992,           0.,       21.875
    600,  -20.2999992,           0.,       21.875
    601,  -23.2999992,           0.,       21.875
    602,  -26.2999992,           0.,       21.875
    603,  -29.2999992,           0.,       21.875
    604,  -17.2999992,           0.,        18.75
    605,  -20.2999992,           0.,        18.75
    606,  -23.2999992,           0.,        18.75
    607,  -26.2999992,           0.,        18.75
    608,  -29.2999992,           0.,        18.75
    609,  -17.2999992,           0.,       15.625
    610,  -20.2999992,           0.,       15.625
    611,  -23.2999992,           0.,       15.625
    612,  -26.2999992,           0.,       15.625
    613,  -29.2999992,           0.,       15.625
    614,  -17.2999992,           0.,         12.5
    615,  -20.2999992,           0.,         12.5
    616,  -23.2999992,           0.,         12.5
    617,  -26.2999992,           0.,         12.5
    618,  -29.2999992,           0.,         12.5
    619,  -17.2999992,           0.,        9.375
    620,  -20.2999992,           0.,        9.375
    621,  -23.2999992,           0.,        9.375
    622,  -26.2999992,           0.,        9.375
    623,  -29.2999992,           0.,        9.375
    624,  -17.2999992,           0.,         6.25
    625,  -20.2999992,           0.,         6.25
    626,  -23.2999992,           0.,         6.25
    627,  -26.2999992,           0.,         6.25
    628,  -29.2999992,           0.,         6.25
    629,  -17.2999992,           0.,        3.125
    630,  -20.2999992,           0.,        3.125
    631,  -23.2999992,           0.,        3.125
    632,  -26.2999992,           0.,        3.125
    633,  -29.2999992,           0.,        3.125
    634,  -29.2999992,   24.8888893,           0.
    635,  -26.2999992,   24.8888893,           0.
    636,  -23.2999992,   24.8888893,           0.
    637,  -20.2999992,   24.8888893,           0.
    638,  -17.2999992,   24.8888893,           0.
    639,  -29.2999992,   21.7777786,           0.
    640,  -26.2999992,   21.7777786,           0.
    641,  -23.2999992,   21.7777786,           0.
    642,  -20.2999992,   21.7777786,           0.
    643,  -17.2999992,   21.7777786,           0.
    644,  -29.2999992,    18.666666,           0.
    645,  -26.2999992,    18.666666,           0.
    646,  -23.2999992,    18.666666,           0.
    647,  -20.2999992,    18.666666,           0.
    648,  -17.2999992,    18.666666,           0.
    649,  -29.2999992,   15.5555553,           0.
    650,  -26.2999992,   15.5555553,           0.
    651,  -23.2999992,   15.5555553,           0.
    652,  -20.2999992,   15.5555553,           0.
    653,  -17.2999992,   15.5555553,           0.
    654,  -29.2999992,   12.4444447,           0.
    655,  -26.2999992,   12.4444447,           0.
    656,  -23.2999992,   12.4444447,           0.
    657,  -20.2999992,   12.4444447,           0.
    658,  -17.2999992,   12.4444447,           0.
    659,  -29.2999992,   9.33333302,           0.
    660,  -26.2999992,   9.33333302,           0.
    661,  -23.2999992,   9.33333302,           0.
    662,  -20.2999992,   9.33333302,           0.
    663,  -17.2999992,   9.33333302,           0.
    664,  -29.2999992,   6.22222233,           0.
    665,  -26.2999992,   6.22222233,           0.
    666,  -23.2999992,   6.22222233,           0.
    667,  -20.2999992,   6.22222233,           0.
    668,  -17.2999992,   6.22222233,           0.
    669,  -29.2999992,   3.11111116,           0.
    670,  -26.2999992,   3.11111116,           0.
    671,  -23.2999992,   3.11111116,           0.
    672,  -20.2999992,   3.11111116,           0.
    673,  -17.2999992,   3.11111116,           0.
    674,  -17.2999992,          28.,       21.875
    675,  -17.2999992,          28.,        18.75
    676,  -17.2999992,          28.,       15.625
    677,  -17.2999992,          28.,         12.5
    678,  -17.2999992,          28.,        9.375
    679,  -17.2999992,          28.,         6.25
    680,  -17.2999992,          28.,        3.125
    681,  -20.2999992,          28.,       21.875
    682,  -20.2999992,          28.,        18.75
    683,  -20.2999992,          28.,       15.625
    684,  -20.2999992,          28.,         12.5
    685,  -20.2999992,          28.,        9.375
    686,  -20.2999992,          28.,         6.25
    687,  -20.2999992,          28.,        3.125
    688,  -23.2999992,          28.,       21.875
    689,  -23.2999992,          28.,        18.75
    690,  -23.2999992,          28.,       15.625
    691,  -23.2999992,          28.,         12.5
    692,  -23.2999992,          28.,        9.375
    693,  -23.2999992,          28.,         6.25
    694,  -23.2999992,          28.,        3.125
    695,  -26.2999992,          28.,       21.875
    696,  -26.2999992,          28.,        18.75
    697,  -26.2999992,          28.,       15.625
    698,  -26.2999992,          28.,         12.5
    699,  -26.2999992,          28.,        9.375
    700,  -26.2999992,          28.,         6.25
    701,  -26.2999992,          28.,        3.125
    702,  -29.2999992,          28.,       21.875
    703,  -29.2999992,          28.,        18.75
    704,  -29.2999992,          28.,       15.625
    705,  -29.2999992,          28.,         12.5
    706,  -29.2999992,          28.,        9.375
    707,  -29.2999992,          28.,         6.25
    708,  -29.2999992,          28.,        3.125
    709,  -17.2999992,   24.8888893,          25.
    710,  -20.2999992,   24.8888893,          25.
    711,  -23.2999992,   24.8888893,          25.
    712,  -26.2999992,   24.8888893,          25.
    713,  -29.2999992,   24.8888893,          25.
    714,  -17.2999992,   21.7777786,          25.
    715,  -20.2999992,   21.7777786,          25.
    716,  -23.2999992,   21.7777786,          25.
    717,  -26.2999992,   21.7777786,          25.
    718,  -29.2999992,   21.7777786,          25.
    719,  -17.2999992,    18.666666,          25.
    720,  -20.2999992,    18.666666,          25.
    721,  -23.2999992,    18.666666,          25.
    722,  -26.2999992,    18.666666,          25.
    723,  -29.2999992,    18.666666,          25.
    724,  -17.2999992,   15.5555553,          25.
    725,  -20.2999992,   15.5555553,          25.
    726,  -23.2999992,   15.5555553,          25.
    727,  -26.2999992,   15.5555553,          25.
    728,  -29.2999992,   15.5555553,          25.
    729,  -17.2999992,   12.4444447,          25.
    730,  -20.2999992,   12.4444447,          25.
    731,  -23.2999992,   12.4444447,          25.
    732,  -26.2999992,   12.4444447,          25.
    733,  -29.2999992,   12.4444447,          25.
    734,  -17.2999992,   9.33333302,          25.
    735,  -20.2999992,   9.33333302,          25.
    736,  -23.2999992,   9.33333302,          25.
    737,  -26.2999992,   9.33333302,          25.
    738,  -29.2999992,   9.33333302,          25.
    739,  -17.2999992,   6.22222233,          25.
    740,  -20.2999992,   6.22222233,          25.
    741,  -23.2999992,   6.22222233,          25.
    742,  -26.2999992,   6.22222233,          25.
    743,  -29.2999992,   6.22222233,          25.
    744,  -17.2999992,   3.11111116,          25.
    745,  -20.2999992,   3.11111116,          25.
    746,  -23.2999992,   3.11111116,          25.
    747,  -26.2999992,   3.11111116,          25.
    748,  -29.2999992,   3.11111116,          25.
    749,  -14.3000002,   5.90155315,    15.853653
    750,  -14.3000002,   8.61154461,   19.3894882
    751,  -14.3000002,   19.1295795,   5.49222517
    752,  -14.3000002,   5.28363419,   11.4663124
    753,  -14.3000002,   8.90777969,   5.47704411
    754,  -14.3000002,   22.7384319,   11.4795876
    755,  -14.3000002,   22.1158371,   15.7938643
    756,  -14.3000002,   6.85581923,    8.0389061
    757,  -14.3000002,   19.6584492,   18.7168217
    758,  -14.3000002,   14.0057707,   3.07721114
    759,  -14.3000002,   21.1669884,   8.05167961
    760,  -14.3000002,   11.7872801,   21.0451832
    761,  -14.3000002,   17.0776997,   20.5320034
    762,  -14.3000002,   23.7939434,   22.2693443
    763,  -14.3000002,   14.6736803,   22.2414455
    764,  -14.3000002,   20.1155987,   22.0023613
    765,  -14.3000002,   7.35105419,   22.3037872
    766,  -14.3000002,   4.43230963,   22.4982281
    767,  -14.3000002,   23.7843933,   2.69137764
    768,  -14.3000002,   20.4831619,   2.73089266
    769,  -14.3000002,   17.2267323,   2.93914151
    770,  -14.3000002,   10.8162022,    2.9303515
    771,  -14.3000002,   7.55159712,   2.72725773
    772,  -14.3000002,    4.2058053,   2.70280862
    773,  -14.3000002,   25.2905178,   13.9739799
    774,  -14.3000002,   25.3540268,   5.08188486
    775,  -14.3000002,   3.25152087,   8.07982445
    776,  -14.3000002,   2.24246788,   11.0722742
    777,  -14.3000002,   2.70820856,   13.9695787
    778,  -14.3000002,   2.74190545,   17.3536377
    779,  -14.3000002,   24.7648849,   8.08183575
    780,  -14.3000002,   25.7587662,   11.0820808
    781,  -14.3000002,   25.2477684,    17.284996
    782,  -14.3000002,   5.57757998,   5.34853268
    783,  -14.3000002,   2.00444603,   22.9585991
    784,  -14.3000002,   17.2178402,    22.955162
    785,  -14.3000002,   22.4471722,   5.35498285
    786,  -14.3000002,   25.5398521,    19.931242
    787,  -14.3000002,   2.60698128,   5.10123348
    788,  -14.3000002,   5.25286293,   19.6364269
    789,  -14.3000002,   22.7452412,   19.3331051
    790,  -14.3000002,   2.40525413,    20.511982
    791,  -14.3000002,   9.90553093,   22.5476913
    792,  -32.2999992,   22.0984459,    15.853653
    793,  -32.2999992,   19.3884563,   19.3894882
    794,  -32.2999992,   8.88269997,   5.49581003
    795,  -32.2999992,   22.7163658,   11.4663124
    796,  -32.2999992,   5.88430691,    15.786972
    797,  -32.2999992,   19.0922203,   5.47704411
    798,  -32.2999992,   5.26664209,   11.4730034
    799,  -32.2999992,   21.1441803,    8.0389061
    800,  -32.2999992,    8.3578434,   18.7183895
    801,  -32.2999992,   13.9957418,   3.07747555
    802,  -32.2999992,   6.83754873,   8.05303478
    803,  -32.2999992,   16.2127266,   21.0451908
    804,  -32.2999992,   10.9365759,   20.5291824
    805,  -32.2999992,   13.3306341,   22.2404709
    806,  -32.2999992,   7.91069412,   22.0234032
    807,  -32.2999992,   20.6489449,   22.3037872
    808,  -32.2999992,   23.5676899,   22.4982281
    809,  -32.2999992,   7.54082441,   2.72499037
    810,  -32.2999992,   10.7795649,   2.93879914
    811,  -32.2999992,   17.1840496,    2.9303956
    812,  -32.2999992,   20.4484444,   2.72726512
    813,  -32.2999992,   23.7942009,   2.70280981
    814,  -32.2999992,   4.18900442,   22.2323112
    815,  -32.2999992,   4.19581842,    2.6991086
    816,  -32.2999992,   2.71136808,   13.9739943
    817,  -32.2999992,   2.64399028,   5.08565807
    818,  -32.2999992,   24.7484798,   8.07982445
    819,  -32.2999992,   25.7575321,   11.0722742
    820,  -32.2999992,   25.2917919,   13.9695787
    821,  -32.2999992,   25.2580948,   17.3536377
    822,  -32.2999992,   3.23788691,   8.08370972
    823,  -32.2999992,   2.24317932,   11.0811415
    824,  -32.2999992,   2.74761271,   17.2719059
    825,  -32.2999992,   22.4224281,   5.34853411
    826,  -32.2999992,    25.995554,   22.9585991
    827,  -32.2999992,   10.7911367,   22.9586105
    828,  -32.2999992,   5.55646133,   5.35705185
    829,  -32.2999992,   5.26623011,   19.3366756
    830,  -32.2999992,    2.4405694,   19.8931789
    831,  -32.2999992,   25.3930225,   5.10123396
    832,  -32.2999992,   22.7471371,   19.6364269
    833,  -32.2999992,   25.5947456,    20.511982
    834,  -32.2999992,    18.094471,   22.5476933
    835,  -29.2999992,   16.9509926,   18.1226463
    836,  -29.2999992,   19.2259483,   16.1072121
    837,  -29.2999992,   20.3037014,   13.2654076
    838,  -29.2999992,   19.9373531,   10.2482586
    839,  -29.2999992,   18.2108288,   7.74695683
    840,  -29.2999992,   15.5196543,   6.33451939
    841,  -29.2999992,   12.4803457,   6.33451939
    842,  -29.2999992,   9.78917122,   7.74695683
    843,  -29.2999992,   8.06264687,   10.2482586
    844,  -29.2999992,    7.6962986,   13.2654076
    845,  -29.2999992,   8.77405262,   16.1072121
    846,  -29.2999992,   11.0490074,   18.1226463
    847,  -29.2999992,          14.,   18.8500004
    848,  -26.2999992,   16.9509926,   18.1226463
    849,  -26.2999992,   19.2259483,   16.1072121
    850,  -26.2999992,   20.3037014,   13.2654076
    851,  -26.2999992,   19.9373531,   10.2482586
    852,  -26.2999992,   18.2108288,   7.74695683
    853,  -26.2999992,   15.5196543,   6.33451939
    854,  -26.2999992,   12.4803457,   6.33451939
    855,  -26.2999992,   9.78917122,   7.74695683
    856,  -26.2999992,   8.06264687,   10.2482586
    857,  -26.2999992,    7.6962986,   13.2654076
    858,  -26.2999992,   8.77405262,   16.1072121
    859,  -26.2999992,   11.0490074,   18.1226463
    860,  -26.2999992,          14.,   18.8500004
    861,  -23.2999992,   16.9509926,   18.1226463
    862,  -23.2999992,   19.2259483,   16.1072121
    863,  -23.2999992,   20.3037014,   13.2654076
    864,  -23.2999992,   19.9373531,   10.2482586
    865,  -23.2999992,   18.2108288,   7.74695683
    866,  -23.2999992,   15.5196543,   6.33451939
    867,  -23.2999992,   12.4803457,   6.33451939
    868,  -23.2999992,   9.78917122,   7.74695683
    869,  -23.2999992,   8.06264687,   10.2482586
    870,  -23.2999992,    7.6962986,   13.2654076
    871,  -23.2999992,   8.77405262,   16.1072121
    872,  -23.2999992,   11.0490074,   18.1226463
    873,  -23.2999992,          14.,   18.8500004
    874,  -20.2999992,   16.9509926,   18.1226463
    875,  -20.2999992,   19.2259483,   16.1072121
    876,  -20.2999992,   20.3037014,   13.2654076
    877,  -20.2999992,   19.9373531,   10.2482586
    878,  -20.2999992,   18.2108288,   7.74695683
    879,  -20.2999992,   15.5196543,   6.33451939
    880,  -20.2999992,   12.4803457,   6.33451939
    881,  -20.2999992,   9.78917122,   7.74695683
    882,  -20.2999992,   8.06264687,   10.2482586
    883,  -20.2999992,    7.6962986,   13.2654076
    884,  -20.2999992,   8.77405262,   16.1072121
    885,  -20.2999992,   11.0490074,   18.1226463
    886,  -20.2999992,          14.,   18.8500004
    887,  -17.2999992,   16.9509926,   18.1226463
    888,  -17.2999992,   19.2259483,   16.1072121
    889,  -17.2999992,   20.3037014,   13.2654076
    890,  -17.2999992,   19.9373531,   10.2482586
    891,  -17.2999992,   18.2108288,   7.74695683
    892,  -17.2999992,   15.5196543,   6.33451939
    893,  -17.2999992,   12.4803457,   6.33451939
    894,  -17.2999992,   9.78917122,   7.74695683
    895,  -17.2999992,   8.06264687,   10.2482586
    896,  -17.2999992,    7.6962986,   13.2654076
    897,  -17.2999992,   8.77405262,   16.1072121
    898,  -17.2999992,   11.0490074,   18.1226463
    899,  -17.2999992,          14.,   18.8500004
    900,           6.,   118.169998,       21.875
    901,           6.,   118.169998,        18.75
    902,           6.,   118.169998,       15.625
    903,           6.,   118.169998,         12.5
    904,           6.,   118.169998,        9.375
    905,           6.,   118.169998,         6.25
    906,           6.,   118.169998,        3.125
    907,           3.,   118.169998,       21.875
    908,           3.,   118.169998,        18.75
    909,           3.,   118.169998,       15.625
    910,           3.,   118.169998,         12.5
    911,           3.,   118.169998,        9.375
    912,           3.,   118.169998,         6.25
    913,           3.,   118.169998,        3.125
    914,           0.,   118.169998,       21.875
    915,           0.,   118.169998,        18.75
    916,           0.,   118.169998,       15.625
    917,           0.,   118.169998,         12.5
    918,           0.,   118.169998,        9.375
    919,           0.,   118.169998,         6.25
    920,           0.,   118.169998,        3.125
    921,          -3.,   118.169998,       21.875
    922,          -3.,   118.169998,        18.75
    923,          -3.,   118.169998,       15.625
    924,          -3.,   118.169998,         12.5
    925,          -3.,   118.169998,        9.375
    926,          -3.,   118.169998,         6.25
    927,          -3.,   118.169998,        3.125
    928,          -6.,   118.169998,       21.875
    929,          -6.,   118.169998,        18.75
    930,          -6.,   118.169998,       15.625
    931,          -6.,   118.169998,         12.5
    932,          -6.,   118.169998,        9.375
    933,          -6.,   118.169998,         6.25
    934,          -6.,   118.169998,        3.125
    935,   7.99999952,   115.169998,       21.875
    936,   6.99999952,   112.169998,       21.875
    937,   5.99999952,   109.169998,       21.875
    938,   7.99999952,   115.169998,        18.75
    939,   6.99999952,   112.169998,        18.75
    940,   5.99999952,   109.169998,        18.75
    941,   7.99999952,   115.169998,       15.625
    942,   6.99999952,   112.169998,       15.625
    943,   5.99999952,   109.169998,       15.625
    944,   7.99999952,   115.169998,         12.5
    945,   6.99999952,   112.169998,         12.5
    946,   5.99999952,   109.169998,         12.5
    947,   7.99999952,   115.169998,        9.375
    948,   6.99999952,   112.169998,        9.375
    949,   5.99999952,   109.169998,        9.375
    950,   7.99999952,   115.169998,         6.25
    951,   6.99999952,   112.169998,         6.25
    952,   5.99999952,   109.169998,         6.25
    953,   7.99999952,   115.169998,        3.125
    954,   6.99999952,   112.169998,        3.125
    955,   5.99999952,   109.169998,        3.125
    956,   6.01004934,   103.357239,       21.875
    957,   7.03191566,   100.548752,       21.875
    958,    8.0773716,     97.74897,       21.875
    959,   9.15809345,   94.9626236,       21.875
    960,   10.2855749,   92.1948929,       21.875
    961,   11.4710112,   89.4514999,       21.875
    962,   12.7251282,   86.7388458,       21.875
    963,   14.0554104,   84.0627289,       21.875
    964,   15.4493589,   81.4191589,       21.875
    965,   16.8861961,   78.7986221,       21.875
    966,   18.3459301,   76.1907501,       21.875
    967,   19.8090057,   73.5847473,       21.875
    968,   21.2558441,   70.9697113,       21.875
    969,   22.6663513,   68.3349304,       21.875
    970,    24.019474,   65.6702728,       21.875
    971,   25.2928486,   62.9666595,       21.875
    972,   26.4626446,   60.2167358,       21.875
    973,   27.5038128,   57.4156799,       21.875
    974,   28.4016361,   54.5654221,       21.875
    975,   29.1662045,   51.6765022,       21.875
    976,   29.8121796,   48.7587166,       21.875
    977,   30.3549614,   45.8199348,       21.875
    978,   30.8101463,   42.8662758,       21.875
    979,   31.1931705,   39.9023628,       21.875
    980,   31.5191345,   36.9316063,       21.875
    981,    31.802742,   33.9564934,       21.875
    982,   32.0583382,   30.9788322,       21.875
    983,   6.01004934,   103.357239,        18.75
    984,   7.03191566,   100.548752,        18.75
    985,    8.0773716,     97.74897,        18.75
    986,   9.15809345,   94.9626236,        18.75
    987,   10.2855749,   92.1948929,        18.75
    988,   11.4710112,   89.4514999,        18.75
    989,   12.7251282,   86.7388458,        18.75
    990,   14.0554104,   84.0627289,        18.75
    991,   15.4493589,   81.4191589,        18.75
    992,   16.8861961,   78.7986221,        18.75
    993,   18.3459301,   76.1907501,        18.75
    994,   19.8090057,   73.5847473,        18.75
    995,   21.2558441,   70.9697113,        18.75
    996,   22.6663513,   68.3349304,        18.75
    997,    24.019474,   65.6702728,        18.75
    998,   25.2928486,   62.9666595,        18.75
    999,   26.4626446,   60.2167358,        18.75
   1000,   27.5038128,   57.4156799,        18.75
   1001,   28.4016361,   54.5654221,        18.75
   1002,   29.1662045,   51.6765022,        18.75
   1003,   29.8121796,   48.7587166,        18.75
   1004,   30.3549614,   45.8199348,        18.75
   1005,   30.8101463,   42.8662758,        18.75
   1006,   31.1931705,   39.9023628,        18.75
   1007,   31.5191345,   36.9316063,        18.75
   1008,    31.802742,   33.9564934,        18.75
   1009,   32.0583382,   30.9788322,        18.75
   1010,   6.01004982,   103.357239,       15.625
   1011,   7.03191566,   100.548752,       15.625
   1012,    8.0773716,     97.74897,       15.625
   1013,   9.15809345,   94.9626236,       15.625
   1014,   10.2855749,   92.1948929,       15.625
   1015,   11.4710112,   89.4514999,       15.625
   1016,   12.7251291,   86.7388458,       15.625
   1017,   14.0554104,   84.0627289,       15.625
   1018,   15.4493589,   81.4191589,       15.625
   1019,   16.8861961,   78.7986221,       15.625
   1020,   18.3459301,   76.1907501,       15.625
   1021,   19.8090057,   73.5847473,       15.625
   1022,   21.2558441,   70.9697113,       15.625
   1023,   22.6663513,   68.3349304,       15.625
   1024,   24.0194759,   65.6702728,       15.625
   1025,   25.2928486,   62.9666595,       15.625
   1026,   26.4626446,   60.2167358,       15.625
   1027,   27.5038128,   57.4156799,       15.625
   1028,   28.4016361,   54.5654221,       15.625
   1029,   29.1662045,   51.6765022,       15.625
   1030,   29.8121796,   48.7587166,       15.625
   1031,   30.3549614,   45.8199348,       15.625
   1032,   30.8101463,   42.8662758,       15.625
   1033,   31.1931705,   39.9023628,       15.625
   1034,   31.5191345,   36.9316101,       15.625
   1035,    31.802742,   33.9564934,       15.625
   1036,   32.0583382,   30.9788322,       15.625
   1037,   6.01004982,   103.357239,         12.5
   1038,   7.03191614,   100.548752,         12.5
   1039,   8.07737255,     97.74897,         12.5
   1040,   9.15809345,   94.9626236,         12.5
   1041,   10.2855749,   92.1948853,         12.5
   1042,   11.4710112,   89.4514999,         12.5
   1043,   12.7251291,   86.7388458,         12.5
   1044,   14.0554104,   84.0627289,         12.5
   1045,   15.4493589,   81.4191589,         12.5
   1046,   16.8861961,   78.7986221,         12.5
   1047,   18.3459301,   76.1907501,         12.5
   1048,   19.8090057,   73.5847473,         12.5
   1049,    21.255846,   70.9697113,         12.5
   1050,   22.6663532,   68.3349304,         12.5
   1051,   24.0194759,   65.6702728,         12.5
   1052,   25.2928486,   62.9666595,         12.5
   1053,   26.4626446,   60.2167358,         12.5
   1054,   27.5038128,   57.4156799,         12.5
   1055,   28.4016361,   54.5654221,         12.5
   1056,   29.1662045,   51.6765022,         12.5
   1057,   29.8121796,   48.7587166,         12.5
   1058,   30.3549614,   45.8199348,         12.5
   1059,   30.8101463,   42.8662758,         12.5
   1060,   31.1931705,   39.9023628,         12.5
   1061,   31.5191345,   36.9316101,         12.5
   1062,    31.802742,   33.9564934,         12.5
   1063,   32.0583382,   30.9788322,         12.5
   1064,   6.01004982,   103.357239,        9.375
   1065,   7.03191614,   100.548752,        9.375
   1066,   8.07737255,     97.74897,        9.375
   1067,   9.15809345,   94.9626236,        9.375
   1068,   10.2855749,   92.1948853,        9.375
   1069,   11.4710121,   89.4514999,        9.375
   1070,   12.7251291,   86.7388458,        9.375
   1071,   14.0554104,   84.0627289,        9.375
   1072,   15.4493589,   81.4191589,        9.375
   1073,   16.8861961,   78.7986221,        9.375
   1074,   18.3459301,   76.1907501,        9.375
   1075,   19.8090076,   73.5847473,        9.375
   1076,    21.255846,   70.9697113,        9.375
   1077,   22.6663532,   68.3349304,        9.375
   1078,   24.0194759,   65.6702728,        9.375
   1079,   25.2928486,   62.9666595,        9.375
   1080,   26.4626446,   60.2167358,        9.375
   1081,   27.5038128,   57.4156761,        9.375
   1082,   28.4016361,   54.5654221,        9.375
   1083,   29.1662045,   51.6765022,        9.375
   1084,   29.8121796,   48.7587166,        9.375
   1085,   30.3549614,   45.8199348,        9.375
   1086,   30.8101463,   42.8662758,        9.375
   1087,   31.1931705,   39.9023628,        9.375
   1088,   31.5191345,   36.9316101,        9.375
   1089,    31.802742,   33.9564934,        9.375
   1090,   32.0583382,   30.9788322,        9.375
   1091,   6.01004982,   103.357239,         6.25
   1092,   7.03191614,   100.548752,         6.25
   1093,   8.07737255,     97.74897,         6.25
   1094,   9.15809345,   94.9626236,         6.25
   1095,   10.2855749,   92.1948853,         6.25
   1096,   11.4710121,   89.4514999,         6.25
   1097,   12.7251291,   86.7388458,         6.25
   1098,   14.0554104,   84.0627289,         6.25
   1099,   15.4493589,   81.4191589,         6.25
   1100,   16.8861961,   78.7986221,         6.25
   1101,   18.3459301,   76.1907501,         6.25
   1102,   19.8090076,   73.5847473,         6.25
   1103,    21.255846,   70.9697113,         6.25
   1104,   22.6663532,   68.3349304,         6.25
   1105,   24.0194759,   65.6702728,         6.25
   1106,   25.2928486,   62.9666595,         6.25
   1107,   26.4626446,    60.216732,         6.25
   1108,   27.5038128,   57.4156761,         6.25
   1109,   28.4016361,   54.5654221,         6.25
   1110,   29.1662045,   51.6765022,         6.25
   1111,   29.8121796,   48.7587166,         6.25
   1112,   30.3549614,   45.8199348,         6.25
   1113,   30.8101463,   42.8662758,         6.25
   1114,   31.1931705,   39.9023628,         6.25
   1115,   31.5191345,   36.9316101,         6.25
   1116,    31.802742,   33.9564972,         6.25
   1117,   32.0583382,   30.9788322,         6.25
   1118,   6.01004982,   103.357239,        3.125
   1119,   7.03191614,   100.548752,        3.125
   1120,   8.07737255,     97.74897,        3.125
   1121,   9.15809345,   94.9626236,        3.125
   1122,   10.2855749,   92.1948853,        3.125
   1123,   11.4710121,   89.4514999,        3.125
   1124,   12.7251291,   86.7388458,        3.125
   1125,   14.0554104,   84.0627289,        3.125
   1126,   15.4493589,   81.4191589,        3.125
   1127,   16.8861961,   78.7986221,        3.125
   1128,   18.3459301,   76.1907501,        3.125
   1129,   19.8090076,   73.5847473,        3.125
   1130,    21.255846,   70.9697113,        3.125
   1131,   22.6663532,   68.3349304,        3.125
   1132,   24.0194759,   65.6702728,        3.125
   1133,   25.2928486,   62.9666595,        3.125
   1134,   26.4626446,    60.216732,        3.125
   1135,   27.5038128,   57.4156761,        3.125
   1136,   28.4016361,   54.5654221,        3.125
   1137,   29.1662045,   51.6765022,        3.125
   1138,   29.8121796,   48.7587166,        3.125
   1139,   30.3549614,   45.8199348,        3.125
   1140,   30.8101463,   42.8662758,        3.125
   1141,   31.1931705,   39.9023628,        3.125
   1142,   31.5191345,   36.9316101,        3.125
   1143,    31.802742,   33.9564972,        3.125
   1144,   32.0583382,   30.9788322,        3.125
   1145,   29.2999992,          28.,        3.125
   1146,   26.2999992,          28.,        3.125
   1147,   23.2999992,          28.,        3.125
   1148,   20.2999992,          28.,        3.125
   1149,   17.2999992,          28.,        3.125
   1150,   29.2999992,          28.,         6.25
   1151,   26.2999992,          28.,         6.25
   1152,   23.2999992,          28.,         6.25
   1153,   20.2999992,          28.,         6.25
   1154,   17.2999992,          28.,         6.25
   1155,   29.2999992,          28.,        9.375
   1156,   26.2999992,          28.,        9.375
   1157,   23.2999992,          28.,        9.375
   1158,   20.2999992,          28.,        9.375
   1159,   17.2999992,          28.,        9.375
   1160,   29.2999992,          28.,         12.5
   1161,   26.2999992,          28.,         12.5
   1162,   23.2999992,          28.,         12.5
   1163,   20.2999992,          28.,         12.5
   1164,   17.2999992,          28.,         12.5
   1165,   29.2999992,          28.,       15.625
   1166,   26.2999992,          28.,       15.625
   1167,   23.2999992,          28.,       15.625
   1168,   20.2999992,          28.,       15.625
   1169,   17.2999992,          28.,       15.625
   1170,   29.2999992,          28.,        18.75
   1171,   26.2999992,          28.,        18.75
   1172,   23.2999992,          28.,        18.75
   1173,   20.2999992,          28.,        18.75
   1174,   17.2999992,          28.,        18.75
   1175,   29.2999992,          28.,       21.875
   1176,   26.2999992,          28.,       21.875
   1177,   23.2999992,          28.,       21.875
   1178,   20.2999992,          28.,       21.875
   1179,   17.2999992,          28.,       21.875
   1180,   15.2427807,   30.8723412,       21.875
   1181,   16.1439266,   33.7579803,       21.875
   1182,   16.9665489,   36.6669006,       21.875
   1183,   17.6821995,   39.6038971,       21.875
   1184,   18.2726917,   42.5685463,       21.875
   1185,   18.7298241,   45.5566597,       21.875
   1186,   19.0535583,   48.5621681,       21.875
   1187,   19.2495289,   51.5787277,       21.875
   1188,   19.3269291,   54.6006927,       21.875
   1189,   19.2994671,   57.6235695,       21.875
   1190,   19.1762447,   60.6440659,       21.875
   1191,   18.9565392,   63.6590652,       21.875
   1192,   18.6299095,   66.6643066,       21.875
   1193,   18.1719055,   69.6522217,       21.875
   1194,   17.5297565,   72.6055984,       21.875
   1195,   16.5697403,   75.4690247,       21.875
   1196,   15.3215189,    77.432518,       21.875
   1197,   14.2318554,   77.9942398,       21.875
   1198,   13.0565815,   77.6817551,       21.875
   1199,    11.265811,    75.991684,       21.875
   1200,   9.56486511,   73.5447617,       21.875
   1201,   8.06677437,   70.9669342,       21.875
   1202,   6.66860962,   68.3332825,       21.875
   1203,   5.32278299,   65.6724091,       21.875
   1204,   15.2427807,   30.8723431,        18.75
   1205,   16.1439266,   33.7579842,        18.75
   1206,   16.9665489,   36.6669044,        18.75
   1207,   17.6822014,   39.6038971,        18.75
   1208,   18.2726936,   42.5685501,        18.75
   1209,   18.7298241,   45.5566635,        18.75
   1210,   19.0535583,   48.5621681,        18.75
   1211,   19.2495289,   51.5787315,        18.75
   1212,   19.3269291,   54.6006966,        18.75
   1213,   19.2994671,   57.6235695,        18.75
   1214,   19.1762447,   60.6440659,        18.75
   1215,   18.9565392,   63.6590652,        18.75
   1216,   18.6299095,   66.6643143,        18.75
   1217,   18.1719055,   69.6522217,        18.75
   1218,   17.5297546,   72.6056061,        18.75
   1219,   16.5697384,   75.4690247,        18.75
   1220,    15.321517,    77.432518,        18.75
   1221,   14.2318525,   77.9942398,        18.75
   1222,   13.0565796,   77.6817551,        18.75
   1223,   11.2658091,    75.991684,        18.75
   1224,    9.5648632,    73.544754,        18.75
   1225,   8.06677246,   70.9669342,        18.75
   1226,   6.66860723,   68.3332825,        18.75
   1227,   5.32278252,   65.6724091,        18.75
   1228,   15.2427816,    30.872345,       15.625
   1229,   16.1439285,   33.7579842,       15.625
   1230,   16.9665489,   36.6669044,       15.625
   1231,   17.6822014,   39.6039009,       15.625
   1232,   18.2726936,   42.5685501,       15.625
   1233,   18.7298241,   45.5566635,       15.625
   1234,   19.0535603,   48.5621681,       15.625
   1235,   19.2495289,   51.5787315,       15.625
   1236,   19.3269291,   54.6006966,       15.625
   1237,   19.2994671,   57.6235695,       15.625
   1238,   19.1762447,   60.6440659,       15.625
   1239,   18.9565392,   63.6590652,       15.625
   1240,   18.6299095,   66.6643143,       15.625
   1241,   18.1719036,   69.6522293,       15.625
   1242,   17.5297546,   72.6056061,       15.625
   1243,   16.5697365,   75.4690323,       15.625
   1244,   15.3215141,    77.432518,       15.625
   1245,   14.2318497,   77.9942398,       15.625
   1246,   13.0565767,   77.6817551,       15.625
   1247,   11.2658072,   75.9916763,       15.625
   1248,    9.5648613,    73.544754,       15.625
   1249,    8.0667696,   70.9669266,       15.625
   1250,   6.66860533,   68.3332748,       15.625
   1251,   5.32278204,   65.6724014,       15.625
   1252,   15.2427826,   30.8723488,         12.5
   1253,   16.1439285,    33.757988,         12.5
   1254,   16.9665489,   36.6669083,         12.5
   1255,   17.6822014,   39.6039009,         12.5
   1256,   18.2726936,   42.5685539,         12.5
   1257,   18.7298241,   45.5566673,         12.5
   1258,   19.0535603,   48.5621719,         12.5
   1259,   19.2495289,   51.5787315,         12.5
   1260,   19.3269291,   54.6007004,         12.5
   1261,   19.2994671,   57.6235733,         12.5
   1262,   19.1762447,   60.6440697,         12.5
   1263,   18.9565392,   63.6590691,         12.5
   1264,   18.6299095,   66.6643143,         12.5
   1265,   18.1719036,   69.6522293,         12.5
   1266,   17.5297546,   72.6056061,         12.5
   1267,   16.5697365,   75.4690323,         12.5
   1268,   15.3215122,   77.4325256,         12.5
   1269,   14.2318468,   77.9942398,         12.5
   1270,   13.0565739,   77.6817474,         12.5
   1271,   11.2658052,   75.9916763,         12.5
   1272,   9.56485939,   73.5447464,         12.5
   1273,   8.06676769,   70.9669266,         12.5
   1274,   6.66860342,   68.3332748,         12.5
   1275,   5.32278156,   65.6724014,         12.5
   1276,   15.2427835,   30.8723507,        9.375
   1277,   16.1439285,    33.757988,        9.375
   1278,   16.9665508,   36.6669083,        9.375
   1279,   17.6822014,   39.6039047,        9.375
   1280,   18.2726936,   42.5685539,        9.375
   1281,    18.729826,   45.5566673,        9.375
   1282,   19.0535603,   48.5621719,        9.375
   1283,   19.2495289,   51.5787354,        9.375
   1284,   19.3269291,   54.6007004,        9.375
   1285,   19.2994671,   57.6235733,        9.375
   1286,   19.1762447,   60.6440697,        9.375
   1287,   18.9565392,   63.6590691,        9.375
   1288,   18.6299095,   66.6643143,        9.375
   1289,   18.1719036,   69.6522293,        9.375
   1290,   17.5297527,   72.6056137,        9.375
   1291,   16.5697346,   75.4690323,        9.375
   1292,   15.3215094,   77.4325256,        9.375
   1293,    14.231843,   77.9942398,        9.375
   1294,    13.056571,   77.6817474,        9.375
   1295,   11.2658033,   75.9916763,        9.375
   1296,   9.56485748,   73.5447464,        9.375
   1297,   8.06676579,   70.9669189,        9.375
   1298,   6.66860151,   68.3332672,        9.375
   1299,   5.32278109,   65.6724014,        9.375
   1300,   15.2427835,   30.8723526,         6.25
   1301,   16.1439304,   33.7579918,         6.25
   1302,   16.9665508,   36.6669121,         6.25
   1303,   17.6822033,   39.6039047,         6.25
   1304,   18.2726936,   42.5685577,         6.25
   1305,    18.729826,   45.5566673,         6.25
   1306,   19.0535603,   48.5621758,         6.25
   1307,   19.2495289,   51.5787354,         6.25
   1308,   19.3269291,   54.6007004,         6.25
   1309,   19.2994671,   57.6235733,         6.25
   1310,   19.1762447,   60.6440697,         6.25
   1311,   18.9565392,   63.6590729,         6.25
   1312,   18.6299076,   66.6643143,         6.25
   1313,   18.1719036,   69.6522369,         6.25
   1314,   17.5297527,   72.6056137,         6.25
   1315,   16.5697346,   75.4690399,         6.25
   1316,   15.3215075,   77.4325256,         6.25
   1317,   14.2318401,   77.9942398,         6.25
   1318,   13.0565691,   77.6817474,         6.25
   1319,   11.2658024,   75.9916763,         6.25
   1320,   9.56485558,   73.5447464,         6.25
   1321,   8.06676388,   70.9669189,         6.25
   1322,   6.66859913,   68.3332672,         6.25
   1323,   5.32278061,   65.6724014,         6.25
   1324,   15.2427845,   30.8723545,        3.125
   1325,   16.1439304,   33.7579956,        3.125
   1326,   16.9665508,   36.6669121,        3.125
   1327,   17.6822033,   39.6039085,        3.125
   1328,   18.2726936,   42.5685577,        3.125
   1329,    18.729826,   45.5566711,        3.125
   1330,   19.0535603,   48.5621758,        3.125
   1331,   19.2495289,   51.5787392,        3.125
   1332,   19.3269291,   54.6007042,        3.125
   1333,   19.2994671,   57.6235771,        3.125
   1334,   19.1762447,   60.6440735,        3.125
   1335,   18.9565392,   63.6590729,        3.125
   1336,   18.6299076,   66.6643219,        3.125
   1337,   18.1719036,   69.6522369,        3.125
   1338,   17.5297527,   72.6056137,        3.125
   1339,   16.5697327,   75.4690399,        3.125
   1340,   15.3215055,   77.4325333,        3.125
   1341,   14.2318373,   77.9942398,        3.125
   1342,   13.0565662,   77.6817474,        3.125
   1343,   11.2658005,   75.9916687,        3.125
   1344,   9.56485367,   73.5447388,        3.125
   1345,   8.06676102,   70.9669113,        3.125
   1346,   6.66859722,   68.3332596,        3.125
   1347,   5.32278013,   65.6724014,        3.125
   1348,   1.33333337,          63.,       21.875
   1349,  -1.33333337,          63.,       21.875
   1350,   1.33333337,          63.,        18.75
   1351,  -1.33333337,          63.,        18.75
   1352,   1.33333337,          63.,       15.625
   1353,  -1.33333337,          63.,       15.625
   1354,   1.33333337,          63.,         12.5
   1355,  -1.33333337,          63.,         12.5
   1356,   1.33333337,          63.,        9.375
   1357,  -1.33333337,          63.,        9.375
   1358,   1.33333337,          63.,         6.25
   1359,  -1.33333337,          63.,         6.25
   1360,   1.33333337,          63.,        3.125
   1361,  -1.33333337,          63.,        3.125
   1362,  -5.32278776,   65.6724167,       21.875
   1363,  -6.66860342,   68.3332748,       21.875
   1364,  -8.06676769,   70.9669266,       21.875
   1365,   -9.5648613,    73.544754,       21.875
   1366,    -11.26581,    75.991684,       21.875
   1367,  -13.0565786,   77.6817551,       21.875
   1368,  -14.2318506,   77.9942398,       21.875
   1369,   -15.321516,    77.432518,       21.875
   1370,  -16.5697384,   75.4690247,       21.875
   1371,  -17.5297546,   72.6056061,       21.875
   1372,  -18.1719055,   69.6522217,       21.875
   1373,  -18.6299095,   66.6643066,       21.875
   1374,  -18.9565392,   63.6590614,       21.875
   1375,  -19.1762447,    60.644062,       21.875
   1376,  -19.2994671,   57.6235733,       21.875
   1377,  -19.3269291,   54.6007042,       21.875
   1378,  -19.2495289,   51.5787392,       21.875
   1379,  -19.0535603,   48.5621796,       21.875
   1380,   -18.729826,   45.5566711,       21.875
   1381,  -18.2726955,   42.5685616,       21.875
   1382,  -17.6822033,   39.6039124,       21.875
   1383,  -16.9665527,   36.6669159,       21.875
   1384,  -16.1439304,   33.7579956,       21.875
   1385,  -15.2427855,   30.8723564,       21.875
   1386,  -5.32278776,   65.6724167,        18.75
   1387,  -6.66860342,   68.3332748,        18.75
   1388,  -8.06676769,   70.9669266,        18.75
   1389,  -9.56485748,   73.5447464,        18.75
   1390,  -11.2658091,    75.991684,        18.75
   1391,  -13.0565767,   77.6817551,        18.75
   1392,  -14.2318487,   77.9942398,        18.75
   1393,   -15.321516,    77.432518,        18.75
   1394,  -16.5697365,   75.4690323,        18.75
   1395,  -17.5297546,   72.6056061,        18.75
   1396,  -18.1719055,   69.6522217,        18.75
   1397,  -18.6299095,   66.6643066,        18.75
   1398,  -18.9565392,   63.6590614,        18.75
   1399,  -19.1762447,   60.6440659,        18.75
   1400,  -19.2994671,   57.6235733,        18.75
   1401,  -19.3269291,    54.600708,        18.75
   1402,  -19.2495289,   51.5787392,        18.75
   1403,  -19.0535603,   48.5621796,        18.75
   1404,   -18.729826,    45.556675,        18.75
   1405,  -18.2726955,   42.5685616,        18.75
   1406,  -17.6822033,   39.6039124,        18.75
   1407,  -16.9665527,   36.6669159,        18.75
   1408,  -16.1439304,   33.7579956,        18.75
   1409,  -15.2427855,   30.8723564,        18.75
   1410,  -5.32278776,   65.6724167,       15.625
   1411,  -6.66860342,   68.3332748,       15.625
   1412,  -8.06676769,   70.9669266,       15.625
   1413,  -9.56485748,   73.5447464,       15.625
   1414,  -11.2658052,   75.9916763,       15.625
   1415,  -13.0565758,   77.6817551,       15.625
   1416,  -14.2318468,   77.9942398,       15.625
   1417,  -15.3215113,   77.4325256,       15.625
   1418,  -16.5697365,   75.4690323,       15.625
   1419,  -17.5297546,   72.6056061,       15.625
   1420,  -18.1719036,   69.6522293,       15.625
   1421,  -18.6299095,   66.6643143,       15.625
   1422,  -18.9565392,   63.6590652,       15.625
   1423,  -19.1762447,   60.6440697,       15.625
   1424,  -19.2994671,   57.6235733,       15.625
   1425,  -19.3269291,    54.600708,       15.625
   1426,  -19.2495289,   51.5787392,       15.625
   1427,  -19.0535603,   48.5621796,       15.625
   1428,   -18.729826,    45.556675,       15.625
   1429,  -18.2726955,   42.5685616,       15.625
   1430,  -17.6822033,   39.6039124,       15.625
   1431,  -16.9665527,   36.6669159,       15.625
   1432,  -16.1439304,   33.7579956,       15.625
   1433,  -15.2427855,   30.8723564,       15.625
   1434,  -5.32278442,   65.6724091,         12.5
   1435,  -6.66860008,   68.3332672,         12.5
   1436,  -8.06676388,   70.9669189,         12.5
   1437,  -9.56485748,   73.5447464,         12.5
   1438,  -11.2658043,   75.9916763,         12.5
   1439,   -13.056572,   77.6817474,         12.5
   1440,  -14.2318449,   77.9942398,         12.5
   1441,  -15.3215103,   77.4325256,         12.5
   1442,  -16.5697365,   75.4690323,         12.5
   1443,  -17.5297546,   72.6056061,         12.5
   1444,  -18.1719036,   69.6522293,         12.5
   1445,  -18.6299095,   66.6643143,         12.5
   1446,  -18.9565392,   63.6590691,         12.5
   1447,  -19.1762447,   60.6440697,         12.5
   1448,  -19.2994671,   57.6235771,         12.5
   1449,  -19.3269291,    54.600708,         12.5
   1450,  -19.2495289,   51.5787392,         12.5
   1451,  -19.0535603,   48.5621796,         12.5
   1452,   -18.729826,    45.556675,         12.5
   1453,  -18.2726955,   42.5685616,         12.5
   1454,  -17.6822033,   39.6039124,         12.5
   1455,  -16.9665527,   36.6669159,         12.5
   1456,  -16.1439304,   33.7579956,         12.5
   1457,  -15.2427855,   30.8723564,         12.5
   1458,  -5.32278442,   65.6724091,        9.375
   1459,  -6.66860008,   68.3332672,        9.375
   1460,  -8.06676388,   70.9669189,        9.375
   1461,  -9.56485653,   73.5447464,        9.375
   1462,  -11.2658043,   75.9916763,        9.375
   1463,  -13.0565701,   77.6817474,        9.375
   1464,   -14.231843,   77.9942398,        9.375
   1465,  -15.3215094,   77.4325256,        9.375
   1466,  -16.5697365,   75.4690323,        9.375
   1467,  -17.5297527,   72.6056137,        9.375
   1468,  -18.1719036,   69.6522293,        9.375
   1469,  -18.6299095,   66.6643143,        9.375
   1470,  -18.9565392,   63.6590691,        9.375
   1471,  -19.1762447,   60.6440735,        9.375
   1472,  -19.2994671,   57.6235771,        9.375
   1473,  -19.3269291,    54.600708,        9.375
   1474,  -19.2495289,    51.578743,        9.375
   1475,  -19.0535603,   48.5621796,        9.375
   1476,   -18.729826,    45.556675,        9.375
   1477,  -18.2726955,   42.5685616,        9.375
   1478,  -17.6822033,   39.6039124,        9.375
   1479,  -16.9665527,   36.6669159,        9.375
   1480,  -16.1439304,   33.7579956,        9.375
   1481,  -15.2427855,   30.8723564,        9.375
   1482,  -5.32278395,   65.6724091,         6.25
   1483,  -6.66859961,   68.3332672,         6.25
   1484,  -8.06676388,   70.9669189,         6.25
   1485,  -9.56485271,   73.5447388,         6.25
   1486,  -11.2658033,   75.9916763,         6.25
   1487,  -13.0565691,   77.6817474,         6.25
   1488,  -14.2318411,   77.9942398,         6.25
   1489,  -15.3215084,   77.4325256,         6.25
   1490,  -16.5697327,   75.4690399,         6.25
   1491,  -17.5297527,   72.6056137,         6.25
   1492,  -18.1719036,   69.6522369,         6.25
   1493,  -18.6299076,   66.6643219,         6.25
   1494,  -18.9565392,   63.6590729,         6.25
   1495,  -19.1762447,   60.6440735,         6.25
   1496,  -19.2994671,   57.6235809,         6.25
   1497,  -19.3269291,    54.600708,         6.25
   1498,  -19.2495289,    51.578743,         6.25
   1499,  -19.0535603,   48.5621796,         6.25
   1500,   -18.729826,    45.556675,         6.25
   1501,  -18.2726955,   42.5685616,         6.25
   1502,  -17.6822033,   39.6039124,         6.25
   1503,  -16.9665527,   36.6669159,         6.25
   1504,  -16.1439304,   33.7579956,         6.25
   1505,  -15.2427855,   30.8723564,         6.25
   1506,  -5.32278395,   65.6724091,        3.125
   1507,  -6.66859961,   68.3332672,        3.125
   1508,  -8.06676388,   70.9669189,        3.125
   1509,  -9.56485271,   73.5447388,        3.125
   1510,  -11.2657995,   75.9916687,        3.125
   1511,  -13.0565681,   77.6817474,        3.125
   1512,  -14.2318392,   77.9942398,        3.125
   1513,  -15.3215084,   77.4325256,        3.125
   1514,  -16.5697327,   75.4690399,        3.125
   1515,  -17.5297527,   72.6056137,        3.125
   1516,  -18.1719036,   69.6522369,        3.125
   1517,  -18.6299076,   66.6643219,        3.125
   1518,  -18.9565372,   63.6590767,        3.125
   1519,  -19.1762447,   60.6440773,        3.125
   1520,  -19.2994671,   57.6235809,        3.125
   1521,  -19.3269291,    54.600708,        3.125
   1522,  -19.2495289,    51.578743,        3.125
   1523,  -19.0535603,   48.5621796,        3.125
   1524,   -18.729826,    45.556675,        3.125
   1525,  -18.2726955,   42.5685616,        3.125
   1526,  -17.6822033,   39.6039124,        3.125
   1527,  -16.9665527,   36.6669159,        3.125
   1528,  -16.1439304,   33.7579956,        3.125
   1529,  -15.2427855,   30.8723564,        3.125
   1530,   13.4735613,   79.3232498,           0.
   1531,  -13.4737368,   79.3229141,           0.
   1532,  -15.0725269,   78.9934921,           0.
   1533,   15.0724907,   78.9935608,           0.
   1534,   11.1779861,   78.4755249,           0.
   1535,   -11.160964,   78.4787674,           0.
   1536, 0.0958761051,   65.4298096,           0.
   1537,  -2.54329062,   65.5580902,           0.
   1538,   11.8693609,   81.4026718,           0.
   1539,  -11.8649035,   81.4031525,           0.
   1540,   8.54045868,   76.5885315,           0.
   1541,  -8.42677116,   76.6100616,           0.
   1542, -0.813435495,   67.9622269,           0.
   1543,   2.68132854,    65.464798,           0.
   1544,  -6.57440519,   73.6023026,           0.
   1545,    6.8140049,   73.6510239,           0.
   1546,   5.12280941,   70.8882141,           0.
   1547,  -5.03509903,   70.8823318,           0.
   1548,   3.82977486,   68.0380478,           0.
   1549,    24.510746,    58.220932,           0.
   1550,   -24.510746,   58.2209358,           0.
   1551,   25.1542053,   55.3034973,           0.
   1552,  -25.1542053,   55.3034973,           0.
   1553,   26.0749474,   52.4241066,           0.
   1554,  -26.0749474,   52.4241066,           0.
   1555,  -24.0366077,   60.6880798,           0.
   1556,   24.0366077,    60.688076,           0.
   1557,   26.9179192,   49.6979141,           0.
   1558,  -26.9179192,   49.6979141,           0.
   1559,  -22.0613918,   62.6924706,           0.
   1560,   22.0865898,   62.6264648,           0.
   1561,   27.3793278,   46.8297539,           0.
   1562,  -27.3793278,   46.8297539,           0.
   1563,  -10.9201546,   84.3668213,           0.
   1564,   10.9216928,   84.3672867,           0.
   1565,   9.73741913,   87.0519562,           0.
   1566,  -9.73633575,   87.0512238,           0.
   1567,   27.9409027,   43.9011154,           0.
   1568,  -27.9409447,   43.9011192,           0.
   1569,  -21.1160698,   65.8863525,           0.
   1570,   21.2717724,   65.3910141,           0.
   1571,   8.53700733,   89.8123779,           0.
   1572,  -8.53686619,   89.8114777,           0.
   1573,   28.4596901,   41.0950127,           0.
   1574,  -28.4598045,   41.0950241,           0.
   1575,   7.35313702,   92.6102371,           0.
   1576,  -7.35853386,   92.6077499,           0.
   1577,   28.6171379,    38.162262,           0.
   1578,  -28.5994835,   38.1465454,           0.
   1579,   6.19072866,   95.4318619,           0.
   1580,  -6.22680998,   95.4184036,           0.
   1581,    28.923954,   35.0460701,           0.
   1582,  -28.8733044,   35.0153847,           0.
   1583,   4.99531841,   98.3038635,           0.
   1584,  -5.11572886,   98.2236252,           0.
   1585,   29.3432007,    31.882349,           0.
   1586,  -29.3007374,   31.8779011,           0.
   1587,   4.03207111,   101.130325,           0.
   1588,  -4.02895832,   100.972351,           0.
   1589,   3.05825424,   103.734383,           0.
   1590,  -2.89733744,   103.633461,           0.
   1591,  -21.9248619,   30.6896763,           0.
   1592,  -24.8092632,    30.536211,           0.
   1593,   4.53712177,   114.808029,           0.
   1594,   1.42674088,   115.494133,           0.
   1595,  -1.36119652,   115.516846,           0.
   1596,  -4.49774933,   114.843597,           0.
   1597,    24.845829,   30.4956245,           0.
   1598,   21.9678173,   30.6291466,           0.
   1599,   18.7264481,   31.2550201,           0.
   1600,   21.2485161,   43.6170731,           0.
   1601,  -21.2482395,   43.6172714,           0.
   1602,    20.576086,   40.5631142,           0.
   1603,    -20.57407,   40.5644989,           0.
   1604,   21.6711121,   46.6959534,           0.
   1605,  -21.6710663,   46.6959877,           0.
   1606,   21.9029617,   49.7064781,           0.
   1607,  -21.9029541,   49.7064857,           0.
   1608,   19.8535423,   37.5571136,           0.
   1609,  -19.8332863,   37.5799828,           0.
   1610,   22.5935116,   52.9116859,           0.
   1611,  -22.5935097,   52.9116898,           0.
   1612,    19.113884,   34.6091156,           0.
   1613,   22.1238499,   56.3359337,           0.
   1614,  -22.1238499,   56.3359375,           0.
   1615,  -19.0871811,   34.6393967,           0.
   1616,   21.8722515,   59.3565102,           0.
   1617,  -21.8680515,   59.3675156,           0.
   1618,  -18.7127476,   31.2889767,           0.
   1619,  -3.98397541,   111.498734,           0.
   1620,   4.05777454,   111.450363,           0.
   1621,  -2.95034099,   108.745171,           0.
   1622,   3.01286244,   108.736153,           0.
   1623,  -20.3680153,   68.3015137,           0.
   1624,   8.90361691,   79.8889542,           0.
   1625,  -8.91974449,    79.855278,           0.
   1626,  -3.70059156,   68.1850967,           0.
   1627,   24.4163647,   50.5574493,           0.
   1628,  -24.4163628,   50.5574532,           0.
   1629,   24.4814625,   48.0339012,           0.
   1630,  -24.4814529,   48.0339088,           0.
   1631,   24.6232414,   44.6791115,           0.
   1632,  -24.6229877,   44.6793137,           0.
   1633,   26.1078701,   42.1725578,           0.
   1634,  -26.1075687,   42.1728401,           0.
   1635,   25.8499737,   39.6165009,           0.
   1636,   -25.839592,   39.6133614,           0.
   1637,    1.4909662,   67.4423294,           0.
   1638,   25.4987774,   36.1219139,           0.
   1639,  -25.4559841,   36.1305923,           0.
   1640,   26.5920753,   32.8283005,           0.
   1641,   1.55907154,   101.815239,           0.
   1642, -0.959294915,   101.329468,           0.
   1643,   27.2762203,   30.2412548,           0.
   1644, 0.0555375256,   113.180489,           0.
   1645,  -27.2514019,   30.2649918,           0.
   1646,   23.6495552,   33.0821037,           0.
   1647,  -23.6078873,   33.1378975,           0.
   1648,   1.50602901,    99.047226,           0.
   1649,  -1.99226224,   98.5972214,           0.
   1650,   3.05139995,   95.8934631,           0.
   1651,  -3.22576785,   95.7946777,           0.
   1652,   -1.5164603,   106.178406,           0.
   1653,    4.3595171,   93.0246353,           0.
   1654,  -4.45916843,   92.9975662,           0.
   1655,   1.67392445,     70.33181,           0.
   1656,   5.59275961,   90.1941147,           0.
   1657,  -5.67721844,   90.1872025,           0.
   1658,   6.79955626,   87.3772888,           0.
   1659,  -6.84477139,    87.368721,           0.
   1660,  -8.02669621,   84.6059952,           0.
   1661,   8.02229118,   84.6496277,           0.
   1662,  -3.33180857,   73.4645615,           0.
   1663,   3.52522469,   73.9568558,           0.
   1664,   22.0037727,   35.4763031,           0.
   1665,  -21.9711494,   35.5119591,           0.
   1666,   1.62092471,    106.19902,           0.
   1667,   22.8894558,   38.4800453,           0.
   1668,   -22.871172,   38.4911499,           0.
   1669,   23.5491905,   41.5214005,           0.
   1670,  -23.5439377,   41.5230713,           0.
   1671,   2.29278302,   113.168854,           0.
   1672,  -1.27255213,   111.018959,           0.
   1673,   21.0922966,   33.0103378,           0.
   1674,  -26.5497627,   32.8271637,           0.
   1675,  -9.22044182,   82.3719406,           0.
   1676,   9.22410488,   82.4297333,           0.
   1677,   6.34967089,   81.8599472,           0.
   1678,   1.36683989,   111.020592,           0.
   1679,  -6.31266737,   81.6886749,           0.
   1680,  0.144192964,   103.814995,           0.
   1681, 0.0435455851,   108.649719,           0.
   1682,  -6.41375828,    78.675087,           0.
   1683,    6.1941638,   78.5872192,           0.
   1684,  -1.83523154,    70.697998,           0.
   1685,   -5.0059371,   76.2560883,           0.
   1686, -0.134338647,   96.0149765,           0.
   1687,   1.36293876,   93.2713242,           0.
   1688,  -1.58526051,    93.234375,           0.
   1689,   2.62602162,   90.4864807,           0.
   1690,  -2.92120886,   90.5694733,           0.
   1691,   3.81715918,   87.6917572,           0.
   1692,  -3.94490123,   87.8513412,           0.
   1693,   5.02497768,   84.9050064,           0.
   1694,  -4.92755032,   84.9286118,           0.
   1695, -0.0843836665,    73.461998,           0.
   1696,  -3.42549658,   79.1856003,           0.
   1697, -0.218726784,   90.6748886,           0.
   1698,   5.76336479,    76.004921,           0.
   1699,   1.14292932,   76.2845688,           0.
   1700,  0.854443669,   88.0429153,           0.
   1701,  -1.48558581,   85.6981354,           0.
   1702,   1.90805852,   85.2945633,           0.
   1703,   3.74100828,   79.8726807,           0.
   1704,   3.04317045,   82.5460739,           0.
   1705,  -2.87218738,   82.4960403,           0.
   1706,   1.19901085,   80.4734573,           0.
   1707,   3.70332479,   77.1922226,           0.
   1708,  -1.84437394,   76.1920853,           0.
   1709,  -1.54319584,   88.5673523,           0.
   1710,   0.10455028,   82.8578415,           0.
   1711,  -1.07113397,   80.7025223,           0.
   1712,   1.88494527,   78.4645233,           0.
   1713,  -21.0607662,   33.0535812,           0.
   1714, -0.352353185,   78.5504608,           0.
   1715,  -2.21198726,   113.211723,           0.
   1716,  -5.99999952,   109.169998,       21.875
   1717,  -6.99999952,   112.169998,       21.875
   1718,  -7.99999952,   115.169998,       21.875
   1719,  -5.99999952,   109.169998,        18.75
   1720,  -6.99999952,   112.169998,        18.75
   1721,  -7.99999952,   115.169998,        18.75
   1722,  -5.99999952,   109.169998,       15.625
   1723,  -6.99999952,   112.169998,       15.625
   1724,  -7.99999952,   115.169998,       15.625
   1725,  -5.99999952,   109.169998,         12.5
   1726,  -6.99999952,   112.169998,         12.5
   1727,  -7.99999952,   115.169998,         12.5
   1728,  -5.99999952,   109.169998,        9.375
   1729,  -6.99999952,   112.169998,        9.375
   1730,  -7.99999952,   115.169998,        9.375
   1731,  -5.99999952,   109.169998,         6.25
   1732,  -6.99999952,   112.169998,         6.25
   1733,  -7.99999952,   115.169998,         6.25
   1734,  -5.99999952,   109.169998,        3.125
   1735,  -6.99999952,   112.169998,        3.125
   1736,  -7.99999952,   115.169998,        3.125
   1737,    13.473753,   79.3229218,          25.
   1738,   -13.473608,   79.3232651,          25.
   1739,   15.0725374,   78.9934921,          25.
   1740,  -15.0725069,   78.9935608,          25.
   1741,  -11.1781406,   78.4756165,          25.
   1742,    11.160985,   78.4787674,          25.
   1743,  -11.8697338,   81.4029007,          25.
   1744,   11.8649254,   81.4031677,          25.
   1745,  -8.54244232,   76.5909805,          25.
   1746,   8.42389488,   76.6079865,          25.
   1747, 0.0361392759,   65.4621964,          25.
   1748,   2.64144564,   65.4866257,          25.
   1749,   6.54438066,   73.5853043,          25.
   1750,  -6.82665443,   73.6656647,          25.
   1751,  -5.21854162,   70.9952545,          25.
   1752,   4.93585443,   70.7981567,          25.
   1753,   -3.8320272,   68.2363739,          25.
   1754,   3.72075057,   68.0450516,          25.
   1755,  -2.57526875,   65.5640793,          25.
   1756,    24.510746,   58.2209282,          25.
   1757,   -24.510746,   58.2209282,          25.
   1758,  -25.1542072,   55.3034935,          25.
   1759,   25.1542053,   55.3034935,          25.
   1760,  -26.0749512,   52.4241028,          25.
   1761,   26.0749474,   52.4241028,          25.
   1762,  -24.0366077,   60.6880722,          25.
   1763,   24.0366077,    60.688076,          25.
   1764,   -26.917923,   49.6979141,          25.
   1765,   26.9179173,   49.6979141,          25.
   1766,   22.0613918,   62.6924629,          25.
   1767,  -22.0613937,   62.6924629,          25.
   1768,  -27.3793297,   46.8297501,          25.
   1769,   27.3793278,   46.8297501,          25.
   1770,  -10.9224129,   84.3676758,          25.
   1771,   10.9202003,   84.3668518,          25.
   1772,  -9.73836803,   87.0523453,          25.
   1773,   9.73642159,   87.0512695,          25.
   1774,  -27.9409447,   43.9011154,          25.
   1775,   27.9409027,   43.9011116,          25.
   1776,   21.1160717,   65.8863449,          25.
   1777,  -21.1160717,   65.8863373,          25.
   1778,   -8.5379076,   89.8126678,          25.
   1779,   8.53698921,   89.8115463,          25.
   1780,  -28.4598064,   41.0950203,          25.
   1781,   28.4596901,   41.0950089,          25.
   1782,  -7.35375547,   92.6104889,          25.
   1783,   7.35869932,   92.6078568,          25.
   1784,  -20.3680172,   68.3014984,          25.
   1785,  -28.5994797,   38.1464996,          25.
   1786,     28.59935,    38.146534,          25.
   1787,  -6.19104004,   95.4324799,          25.
   1788,   6.22721529,   95.4187775,          25.
   1789,  -28.8727398,   35.0063972,          25.
   1790,   28.8732033,   35.0153809,          25.
   1791,  -4.99538708,   98.3071365,          25.
   1792,   5.11771154,   98.2257156,          25.
   1793,  -29.3022022,   31.8457756,          25.
   1794,   29.3006668,   31.8778992,          25.
   1795,  -4.04576015,   101.170898,          25.
   1796,   4.03779078,   101.008316,          25.
   1797,   2.94790554,   103.798492,          25.
   1798,   -3.1575613,   104.069832,          25.
   1799,  -24.7997952,   30.4750195,          25.
   1800,  -21.9462318,   30.6389446,          25.
   1801,  -18.7204113,   31.2581921,          25.
   1802,   21.9248238,   30.6896744,          25.
   1803,    24.809185,   30.5362091,          25.
   1804,  -4.77745819,   115.327644,          25.
   1805,   -1.5701251,   115.462624,          25.
   1806,   1.59915805,   115.326439,          25.
   1807,   4.83922625,   115.166893,          25.
   1808,  -21.2483006,   43.6170654,          25.
   1809,     21.24823,   43.6172523,          25.
   1810,  -20.5744896,   40.5630417,          25.
   1811,   20.5740547,    40.564476,          25.
   1812,  -21.6710777,   46.6959534,          25.
   1813,   21.6710644,   46.6959763,          25.
   1814,  -21.9029598,   49.7064781,          25.
   1815,   21.9029541,   49.7064743,          25.
   1816,  -19.8492413,   37.5585556,          25.
   1817,   19.8332748,   37.5799599,          25.
   1818,  -22.5935135,   52.9116859,          25.
   1819,   22.5935097,   52.9116821,          25.
   1820,  -22.1238518,   56.3359299,          25.
   1821,  -19.1062012,   34.6135674,          25.
   1822,   22.1238499,   56.3359261,          25.
   1823,   19.0871735,   34.6393814,          25.
   1824,  -21.8680515,   59.3675041,          25.
   1825,   21.8680515,   59.3675041,          25.
   1826,   18.7127361,    31.288969,          25.
   1827,  -8.90468121,   79.8900223,          25.
   1828,   1.35721719,   67.4722214,          25.
   1829,   8.91932297,   79.8549194,          25.
   1830,  -24.4163666,   50.5574493,          25.
   1831,   24.4163628,   50.5574455,          25.
   1832,  -24.4814568,   48.0339012,          25.
   1833,    24.481451,    48.033905,          25.
   1834,  -24.6230507,      44.6791,          25.
   1835,   24.6229496,   44.6793022,          25.
   1836,  -26.1076527,    42.172554,          25.
   1837,   26.1074696,    42.172821,          25.
   1838,  -25.8400173,   39.6118355,          25.
   1839,    25.839489,   39.6133461,          25.
   1840,  -25.4586544,    36.106842,          25.
   1841,   25.4558887,   36.1305809,          25.
   1842,  0.945593178,   101.442856,          25.
   1843,  -1.58814633,   101.997292,          25.
   1844, -0.0842347816,   112.663651,          25.
   1845,    27.251339,   30.2649899,          25.
   1846,  -23.6175671,   33.0862961,          25.
   1847,   23.6078205,   33.1378899,          25.
   1848,  -1.51249743,     99.09832,          25.
   1849,   1.99129248,   98.6321411,          25.
   1850,  -3.05246615,   95.9038544,          25.
   1851,   3.22645593,   95.8020935,          25.
   1852,   1.67172372,    106.70858,          25.
   1853,  -2.18195558,   107.655235,          25.
   1854,   4.45790195,    92.987175,          25.
   1855,  -4.36055756,   93.0269318,          25.
   1856,  -2.13474917,   70.8298187,          25.
   1857,    1.3811301,   70.2759552,          25.
   1858,   -5.5944767,   90.1949005,          25.
   1859,   5.67366457,    90.159523,          25.
   1860,  -6.80156279,   87.3780212,          25.
   1861,   6.84215879,   87.3478317,          25.
   1862,  -8.02396488,   84.6504745,          25.
   1863,   8.02607536,   84.6002502,          25.
   1864,   3.19412088,   73.3760376,          25.
   1865,  -3.64177799,   74.0553131,          25.
   1866,  -21.9850655,   35.4775238,          25.
   1867,   21.9711075,   35.5119438,          25.
   1868,  -22.8767948,   38.4771767,          25.
   1869,   22.8711147,   38.4911308,          25.
   1870,  -23.5450516,   41.5201302,          25.
   1871,   23.5438843,    41.523056,          25.
   1872,  -3.18720126,   112.808136,          25.
   1873,   3.37954283,   111.846008,          25.
   1874,  -21.0750961,    33.014904,          25.
   1875,   20.3680172,    68.301506,          25.
   1876,  -26.5477829,   32.7993355,          25.
   1877,   26.5496845,   32.8271561,          25.
   1878,   9.22028255,   82.3707352,          25.
   1879,  -9.22528362,   82.4305267,          25.
   1880,  -6.35923862,   81.8619156,          25.
   1881, -0.227073431,   104.278717,          25.
   1882,   6.32880878,   81.6758881,          25.
   1883,   6.41142416,   78.6690903,          25.
   1884,  -6.20167971,   78.5940094,          25.
   1885,  0.749952793,   109.722824,          25.
   1886,  -1.73718524,   110.669853,          25.
   1887, -0.961259723,   67.9734421,          25.
   1888,   4.96638298,   76.2353363,          25.
   1889,  0.133033335,   96.0327835,          25.
   1890,    3.3602438,    108.72348,          25.
   1891,  -1.36584759,   93.2627869,          25.
   1892,   1.58079493,   93.2094879,          25.
   1893,  -2.69398832,   90.4714127,          25.
   1894,   2.87901735,   90.4357681,          25.
   1895,  -3.94954109,   87.6929321,          25.
   1896,   4.02114868,   87.6575241,          25.
   1897,  -5.11437654,   84.9102554,          25.
   1898,   5.08358955,   84.8125992,          25.
   1899, -0.127177894,   73.4773636,          25.
   1900,   3.43280506,   79.1789246,          25.
   1901, 0.0979844481,   90.5489655,          25.
   1902,  -5.79488087,   76.0329056,          25.
   1903,  -1.21586549,   76.3082352,          25.
   1904,  -1.25288677,   87.9785767,          25.
   1905,  -2.25449705,    85.381813,          25.
   1906,   2.24612379,   85.3184891,          25.
   1907,  -3.76077533,   79.8798294,          25.
   1908,   -3.1114316,   82.6222839,          25.
   1909,     3.045609,   82.4786835,          25.
   1910,   21.0607319,   33.0535698,          25.
   1911,  -27.2499561,   30.2240257,          25.
   1912,  -1.20190656,   80.5592957,          25.
   1913,  -3.74705696,   77.2209473,          25.
   1914,    1.7660116,   76.1813278,          25.
   1915, -0.00829462241,    83.282608,          25.
   1916,   1.33501291,   87.9767151,          25.
   1917,   1.12280333,   80.8023224,          25.
   1918,  -1.91596007,   78.4960785,          25.
   1919, 0.0130916545,   85.9876404,          25.
   1920,  0.331314683,   78.5876999,          25.
   1921,  -4.02126837,   110.494644,          25.
   1922,  -32.0583382,   30.9788303,       21.875
   1923,   -31.802742,   33.9564934,       21.875
   1924,  -31.5191345,   36.9316063,       21.875
   1925,  -31.1931705,    39.902359,       21.875
   1926,  -30.8101463,    42.866272,       21.875
   1927,  -30.3549633,    45.819931,       21.875
   1928,  -29.8121796,   48.7587128,       21.875
   1929,  -29.1662045,   51.6765022,       21.875
   1930,  -28.4016361,   54.5654182,       21.875
   1931,  -27.5038128,   57.4156761,       21.875
   1932,  -26.4626446,    60.216732,       21.875
   1933,  -25.2928505,   62.9666557,       21.875
   1934,  -24.0194778,   65.6702652,       21.875
   1935,  -22.6663532,   68.3349304,       21.875
   1936,   -21.255846,   70.9697113,       21.875
   1937,  -19.8090076,   73.5847473,       21.875
   1938,  -18.3459301,   76.1907501,       21.875
   1939,  -16.8861961,   78.7986221,       21.875
   1940,  -15.4493599,   81.4191589,       21.875
   1941,  -14.0554104,   84.0627289,       21.875
   1942,  -12.7251301,   86.7388458,       21.875
   1943,  -11.4710121,   89.4514999,       21.875
   1944,  -10.2855768,   92.1948853,       21.875
   1945,  -9.15809345,   94.9626236,       21.875
   1946,   -8.0773716,     97.74897,       21.875
   1947,  -7.03191566,   100.548752,       21.875
   1948,  -6.01004982,   103.357239,       21.875
   1949,  -32.0583382,   30.9788303,        18.75
   1950,   -31.802742,   33.9564934,        18.75
   1951,  -31.5191345,   36.9316063,        18.75
   1952,  -31.1931705,    39.902359,        18.75
   1953,  -30.8101463,    42.866272,        18.75
   1954,  -30.3549633,    45.819931,        18.75
   1955,  -29.8121796,   48.7587128,        18.75
   1956,  -29.1662045,   51.6765022,        18.75
   1957,  -28.4016361,   54.5654221,        18.75
   1958,  -27.5038128,   57.4156761,        18.75
   1959,  -26.4626446,    60.216732,        18.75
   1960,  -25.2928486,   62.9666595,        18.75
   1961,  -24.0194778,   65.6702652,        18.75
   1962,  -22.6663532,   68.3349304,        18.75
   1963,   -21.255846,   70.9697113,        18.75
   1964,  -19.8090076,   73.5847473,        18.75
   1965,  -18.3459301,   76.1907501,        18.75
   1966,  -16.8861961,   78.7986221,        18.75
   1967,  -15.4493599,   81.4191589,        18.75
   1968,  -14.0554104,   84.0627289,        18.75
   1969,  -12.7251301,   86.7388458,        18.75
   1970,  -11.4710121,   89.4514999,        18.75
   1971,  -10.2855768,   92.1948853,        18.75
   1972,  -9.15809345,   94.9626236,        18.75
   1973,   -8.0773716,     97.74897,        18.75
   1974,  -7.03191566,   100.548752,        18.75
   1975,  -6.01004982,   103.357239,        18.75
   1976,  -32.0583382,   30.9788303,       15.625
   1977,   -31.802742,   33.9564934,       15.625
   1978,  -31.5191345,   36.9316063,       15.625
   1979,  -31.1931705,    39.902359,       15.625
   1980,  -30.8101463,    42.866272,       15.625
   1981,  -30.3549633,    45.819931,       15.625
   1982,  -29.8121796,   48.7587166,       15.625
   1983,  -29.1662045,   51.6765022,       15.625
   1984,  -28.4016361,   54.5654221,       15.625
   1985,  -27.5038128,   57.4156761,       15.625
   1986,  -26.4626446,    60.216732,       15.625
   1987,  -25.2928486,   62.9666595,       15.625
   1988,  -24.0194778,   65.6702652,       15.625
   1989,  -22.6663532,   68.3349304,       15.625
   1990,   -21.255846,   70.9697113,       15.625
   1991,  -19.8090076,   73.5847473,       15.625
   1992,  -18.3459301,   76.1907501,       15.625
   1993,  -16.8861961,   78.7986221,       15.625
   1994,  -15.4493599,   81.4191589,       15.625
   1995,  -14.0554104,   84.0627289,       15.625
   1996,  -12.7251301,   86.7388458,       15.625
   1997,  -11.4710121,   89.4514999,       15.625
   1998,  -10.2855768,   92.1948853,       15.625
   1999,  -9.15809345,   94.9626236,       15.625
   2000,   -8.0773716,     97.74897,       15.625
   2001,  -7.03191566,   100.548752,       15.625
   2002,  -6.01004982,   103.357239,       15.625
   2003,  -32.0583382,   30.9788303,         12.5
   2004,   -31.802742,   33.9564934,         12.5
   2005,  -31.5191345,   36.9316063,         12.5
   2006,  -31.1931705,    39.902359,         12.5
   2007,  -30.8101463,    42.866272,         12.5
   2008,  -30.3549633,    45.819931,         12.5
   2009,  -29.8121796,   48.7587166,         12.5
   2010,  -29.1662045,   51.6765022,         12.5
   2011,  -28.4016361,   54.5654221,         12.5
   2012,  -27.5038128,   57.4156761,         12.5
   2013,  -26.4626446,    60.216732,         12.5
   2014,  -25.2928486,   62.9666595,         12.5
   2015,   -24.019474,   65.6702728,         12.5
   2016,  -22.6663532,   68.3349304,         12.5
   2017,   -21.255846,   70.9697113,         12.5
   2018,  -19.8090076,   73.5847473,         12.5
   2019,  -18.3459301,   76.1907501,         12.5
   2020,  -16.8861961,   78.7986221,         12.5
   2021,  -15.4493599,   81.4191589,         12.5
   2022,  -14.0554104,   84.0627289,         12.5
   2023,  -12.7251301,   86.7388458,         12.5
   2024,  -11.4710121,   89.4514999,         12.5
   2025,  -10.2855768,   92.1948853,         12.5
   2026,  -9.15809345,   94.9626236,         12.5
   2027,   -8.0773716,     97.74897,         12.5
   2028,  -7.03191566,   100.548752,         12.5
   2029,  -6.01004982,   103.357239,         12.5
   2030,  -32.0583382,   30.9788303,        9.375
   2031,   -31.802742,   33.9564934,        9.375
   2032,  -31.5191345,   36.9316063,        9.375
   2033,  -31.1931705,    39.902359,        9.375
   2034,  -30.8101463,    42.866272,        9.375
   2035,  -30.3549614,   45.8199348,        9.375
   2036,  -29.8121796,   48.7587166,        9.375
   2037,  -29.1662045,   51.6765022,        9.375
   2038,  -28.4016361,   54.5654221,        9.375
   2039,  -27.5038128,   57.4156761,        9.375
   2040,  -26.4626446,    60.216732,        9.375
   2041,  -25.2928486,   62.9666595,        9.375
   2042,   -24.019474,   65.6702728,        9.375
   2043,  -22.6663532,   68.3349304,        9.375
   2044,   -21.255846,   70.9697113,        9.375
   2045,  -19.8090076,   73.5847473,        9.375
   2046,  -18.3459301,   76.1907501,        9.375
   2047,  -16.8861961,   78.7986221,        9.375
   2048,  -15.4493599,   81.4191589,        9.375
   2049,  -14.0554104,   84.0627289,        9.375
   2050,  -12.7251301,   86.7388458,        9.375
   2051,  -11.4710121,   89.4514999,        9.375
   2052,  -10.2855768,   92.1948853,        9.375
   2053,  -9.15809345,   94.9626236,        9.375
   2054,   -8.0773716,     97.74897,        9.375
   2055,  -7.03191566,   100.548752,        9.375
   2056,  -6.01004982,   103.357239,        9.375
   2057,  -32.0583382,   30.9788303,         6.25
   2058,   -31.802742,   33.9564934,         6.25
   2059,  -31.5191345,   36.9316063,         6.25
   2060,  -31.1931705,   39.9023628,         6.25
   2061,  -30.8101463,   42.8662758,         6.25
   2062,  -30.3549614,   45.8199348,         6.25
   2063,  -29.8121796,   48.7587166,         6.25
   2064,  -29.1662045,   51.6765022,         6.25
   2065,  -28.4016361,   54.5654221,         6.25
   2066,  -27.5038128,   57.4156761,         6.25
   2067,  -26.4626446,    60.216732,         6.25
   2068,  -25.2928486,   62.9666595,         6.25
   2069,   -24.019474,   65.6702728,         6.25
   2070,  -22.6663532,   68.3349304,         6.25
   2071,   -21.255846,   70.9697113,         6.25
   2072,  -19.8090076,   73.5847473,         6.25
   2073,  -18.3459301,   76.1907501,         6.25
   2074,  -16.8861961,   78.7986221,         6.25
   2075,  -15.4493599,   81.4191589,         6.25
   2076,  -14.0554104,   84.0627289,         6.25
   2077,  -12.7251301,   86.7388458,         6.25
   2078,  -11.4710121,   89.4514999,         6.25
   2079,  -10.2855768,   92.1948853,         6.25
   2080,  -9.15809345,   94.9626236,         6.25
   2081,   -8.0773716,     97.74897,         6.25
   2082,  -7.03191614,   100.548752,         6.25
   2083,  -6.01004982,   103.357239,         6.25
   2084,  -32.0583382,   30.9788303,        3.125
   2085,   -31.802742,   33.9564934,        3.125
   2086,  -31.5191345,   36.9316063,        3.125
   2087,  -31.1931705,   39.9023628,        3.125
   2088,  -30.8101463,   42.8662758,        3.125
   2089,  -30.3549614,   45.8199348,        3.125
   2090,  -29.8121796,   48.7587166,        3.125
   2091,  -29.1662045,   51.6765022,        3.125
   2092,  -28.4016361,   54.5654221,        3.125
   2093,  -27.5038128,   57.4156761,        3.125
   2094,  -26.4626446,   60.2167358,        3.125
   2095,  -25.2928486,   62.9666595,        3.125
   2096,   -24.019474,   65.6702728,        3.125
   2097,  -22.6663532,   68.3349304,        3.125
   2098,   -21.255846,   70.9697113,        3.125
   2099,  -19.8090076,   73.5847473,        3.125
   2100,  -18.3459301,   76.1907501,        3.125
   2101,  -16.8861961,   78.7986221,        3.125
   2102,  -15.4493599,   81.4191589,        3.125
   2103,  -14.0554104,   84.0627289,        3.125
   2104,  -12.7251301,   86.7388458,        3.125
   2105,  -11.4710121,   89.4514999,        3.125
   2106,  -10.2855768,   92.1948853,        3.125
   2107,  -9.15809345,   94.9626236,        3.125
   2108,   -8.0773716,     97.74897,        3.125
   2109,  -7.03191614,   100.548752,        3.125
   2110,  -6.01004982,   103.357239,        3.125
   2111,          -6.,   146.169998,       21.875
   2112,          -3.,   146.169998,       21.875
   2113,           0.,   146.169998,       21.875
   2114,           3.,   146.169998,       21.875
   2115,           6.,   146.169998,       21.875
   2116,          -6.,   146.169998,        18.75
   2117,          -3.,   146.169998,        18.75
   2118,           0.,   146.169998,        18.75
   2119,           3.,   146.169998,        18.75
   2120,           6.,   146.169998,        18.75
   2121,          -6.,   146.169998,       15.625
   2122,          -3.,   146.169998,       15.625
   2123,           0.,   146.169998,       15.625
   2124,           3.,   146.169998,       15.625
   2125,           6.,   146.169998,       15.625
   2126,          -6.,   146.169998,         12.5
   2127,          -3.,   146.169998,         12.5
   2128,           0.,   146.169998,         12.5
   2129,           3.,   146.169998,         12.5
   2130,           6.,   146.169998,         12.5
   2131,          -6.,   146.169998,        9.375
   2132,          -3.,   146.169998,        9.375
   2133,           0.,   146.169998,        9.375
   2134,           3.,   146.169998,        9.375
   2135,           6.,   146.169998,        9.375
   2136,          -6.,   146.169998,         6.25
   2137,          -3.,   146.169998,         6.25
   2138,           0.,   146.169998,         6.25
   2139,           3.,   146.169998,         6.25
   2140,           6.,   146.169998,         6.25
   2141,          -6.,   146.169998,        3.125
   2142,          -3.,   146.169998,        3.125
   2143,           0.,   146.169998,        3.125
   2144,           3.,   146.169998,        3.125
   2145,           6.,   146.169998,        3.125
   2146,          -6.,   135.120987,   18.1226463
   2147,          -6.,    137.39595,   16.1072121
   2148,          -6.,   138.473694,   13.2654076
   2149,          -6.,   138.107346,   10.2482586
   2150,          -6.,   136.380829,   7.74695683
   2151,          -6.,   133.689651,   6.33451939
   2152,          -6.,   130.650345,   6.33451939
   2153,          -6.,   127.959167,   7.74695683
   2154,          -6.,   126.232643,   10.2482586
   2155,          -6.,   125.866295,   13.2654076
   2156,          -6.,   126.944054,   16.1072121
   2157,          -6.,   129.219009,   18.1226463
   2158,          -6.,   132.169998,   18.8500004
   2159,          -3.,   135.120987,   18.1226463
   2160,          -3.,    137.39595,   16.1072121
   2161,          -3.,   138.473694,   13.2654076
   2162,          -3.,   138.107346,   10.2482586
   2163,          -3.,   136.380829,   7.74695683
   2164,          -3.,   133.689651,   6.33451939
   2165,          -3.,   130.650345,   6.33451939
   2166,          -3.,   127.959167,   7.74695683
   2167,          -3.,   126.232643,   10.2482586
   2168,          -3.,   125.866295,   13.2654076
   2169,          -3.,   126.944054,   16.1072121
   2170,          -3.,   129.219009,   18.1226463
   2171,          -3.,   132.169998,   18.8500004
   2172,           0.,   135.120987,   18.1226463
   2173,           0.,    137.39595,   16.1072121
   2174,           0.,   138.473694,   13.2654076
   2175,           0.,   138.107346,   10.2482586
   2176,           0.,   136.380829,   7.74695683
   2177,           0.,   133.689651,   6.33451939
   2178,           0.,   130.650345,   6.33451939
   2179,           0.,   127.959167,   7.74695683
   2180,           0.,   126.232643,   10.2482586
   2181,           0.,   125.866295,   13.2654076
   2182,           0.,   126.944054,   16.1072121
   2183,           0.,   129.219009,   18.1226463
   2184,           0.,   132.169998,   18.8500004
   2185,           3.,   135.120987,   18.1226463
   2186,           3.,    137.39595,   16.1072121
   2187,           3.,   138.473694,   13.2654076
   2188,           3.,   138.107346,   10.2482586
   2189,           3.,   136.380829,   7.74695683
   2190,           3.,   133.689651,   6.33451939
   2191,           3.,   130.650345,   6.33451939
   2192,           3.,   127.959167,   7.74695683
   2193,           3.,   126.232643,   10.2482586
   2194,           3.,   125.866295,   13.2654076
   2195,           3.,   126.944054,   16.1072121
   2196,           3.,   129.219009,   18.1226463
   2197,           3.,   132.169998,   18.8500004
   2198,           6.,   135.120987,   18.1226463
   2199,           6.,    137.39595,   16.1072121
   2200,           6.,   138.473694,   13.2654076
   2201,           6.,   138.107346,   10.2482586
   2202,           6.,   136.380829,   7.74695683
   2203,           6.,   133.689651,   6.33451939
   2204,           6.,   130.650345,   6.33451939
   2205,           6.,   127.959167,   7.74695683
   2206,           6.,   126.232643,   10.2482586
   2207,           6.,   125.866295,   13.2654076
   2208,           6.,   126.944054,   16.1072121
   2209,           6.,   129.219009,   18.1226463
   2210,           6.,   132.169998,   18.8500004
   2211,          -6.,   121.281113,          25.
   2212,          -3.,   121.281113,          25.
   2213,           0.,   121.281113,          25.
   2214,           3.,   121.281113,          25.
   2215,           6.,   121.281113,          25.
   2216,          -6.,    124.39222,          25.
   2217,          -3.,    124.39222,          25.
   2218,           0.,    124.39222,          25.
   2219,           3.,    124.39222,          25.
   2220,           6.,    124.39222,          25.
   2221,          -6.,   127.503334,          25.
   2222,          -3.,   127.503334,          25.
   2223,           0.,   127.503334,          25.
   2224,           3.,   127.503334,          25.
   2225,           6.,   127.503334,          25.
   2226,          -6.,   130.614441,          25.
   2227,          -3.,   130.614441,          25.
   2228,           0.,   130.614441,          25.
   2229,           3.,   130.614441,          25.
   2230,           6.,   130.614441,          25.
   2231,          -6.,   133.725555,          25.
   2232,          -3.,   133.725555,          25.
   2233,           0.,   133.725555,          25.
   2234,           3.,   133.725555,          25.
   2235,           6.,   133.725555,          25.
   2236,          -6.,    136.83667,          25.
   2237,          -3.,    136.83667,          25.
   2238,           0.,    136.83667,          25.
   2239,           3.,    136.83667,          25.
   2240,           6.,    136.83667,          25.
   2241,          -6.,   139.947784,          25.
   2242,          -3.,   139.947784,          25.
   2243,           0.,   139.947784,          25.
   2244,           3.,   139.947784,          25.
   2245,           6.,   139.947784,          25.
   2246,          -6.,   143.058884,          25.
   2247,          -3.,   143.058884,          25.
   2248,           0.,   143.058884,          25.
   2249,           3.,   143.058884,          25.
   2250,           6.,   143.058884,          25.
   2251,          -9.,   129.097992,   20.5512428
   2252,          -9.,   140.268448,    15.853653
   2253,          -9.,   137.262222,   5.47704411
   2254,          -9.,   140.886368,   11.4663124
   2255,          -9.,   124.027412,   15.7761106
   2256,          -9.,   127.052704,   5.49581003
   2257,          -9.,     123.4328,   11.4714518
   2258,          -9.,   132.165741,   3.07747555
   2259,          -9.,   125.006912,   8.05277634
   2260,          -9.,   137.558456,   19.3894882
   2261,          -9.,   139.314178,    8.0389061
   2262,          -9.,   126.498108,   18.7012234
   2263,          -9.,   134.381073,   21.0460033
   2264,          -9.,    131.49559,   22.2452564
   2265,          -9.,   126.067047,   22.0231438
   2266,          -9.,   125.710823,   2.72499037
   2267,          -9.,   122.350151,   22.2299023
   2268,          -9.,   138.818939,   22.3037872
   2269,          -9.,   141.737686,   22.4982281
   2270,          -9.,   122.365822,    2.6991086
   2271,          -9.,    135.35405,    2.9303956
   2272,          -9.,   138.618439,   2.72726512
   2273,          -9.,   141.964203,   2.70280981
   2274,          -9.,    128.94957,   2.93879914
   2275,          -9.,   120.876244,   13.9719257
   2276,          -9.,   120.813988,   5.08565807
   2277,          -9.,   142.918472,   8.07982445
   2278,          -9.,   143.927536,   11.0722742
   2279,          -9.,   143.461792,   13.9695787
   2280,          -9.,   143.428101,   17.3536377
   2281,          -9.,   121.407249,   8.08345127
   2282,          -9.,   120.411255,   11.0803661
   2283,          -9.,   120.905701,   17.2673836
   2284,          -9.,   140.592422,   5.34853411
   2285,          -9.,   144.165558,   22.9585991
   2286,          -9.,   128.955673,   22.9639282
   2287,          -9.,    123.72625,   5.35696602
   2288,          -9.,   123.419815,   19.3303871
   2289,          -9.,   120.603134,   19.8905354
   2290,          -9.,   143.563019,   5.10123396
   2291,          -9.,   140.917145,   19.6364269
   2292,          -9.,    143.76474,    20.511982
   2293,          -9.,   136.264145,   22.5478554
   2294,           6.,   121.281113,           0.
   2295,           3.,   121.281113,           0.
   2296,           0.,   121.281113,           0.
   2297,          -3.,   121.281113,           0.
   2298,          -6.,   121.281113,           0.
   2299,           6.,    124.39222,           0.
   2300,           3.,    124.39222,           0.
   2301,           0.,    124.39222,           0.
   2302,          -3.,    124.39222,           0.
   2303,          -6.,    124.39222,           0.
   2304,           6.,   127.503334,           0.
   2305,           3.,   127.503334,           0.
   2306,           0.,   127.503334,           0.
   2307,          -3.,   127.503334,           0.
   2308,          -6.,   127.503334,           0.
   2309,           6.,   130.614441,           0.
   2310,           3.,   130.614441,           0.
   2311,           0.,   130.614441,           0.
   2312,          -3.,   130.614441,           0.
   2313,          -6.,   130.614441,           0.
   2314,           6.,   133.725555,           0.
   2315,           3.,   133.725555,           0.
   2316,           0.,   133.725555,           0.
   2317,          -3.,   133.725555,           0.
   2318,          -6.,   133.725555,           0.
   2319,           6.,    136.83667,           0.
   2320,           3.,    136.83667,           0.
   2321,           0.,    136.83667,           0.
   2322,          -3.,    136.83667,           0.
   2323,          -6.,    136.83667,           0.
   2324,           6.,   139.947784,           0.
   2325,           3.,   139.947784,           0.
   2326,           0.,   139.947784,           0.
   2327,          -3.,   139.947784,           0.
   2328,          -6.,   139.947784,           0.
   2329,           6.,   143.058884,           0.
   2330,           3.,   143.058884,           0.
   2331,           0.,   143.058884,           0.
   2332,          -3.,   143.058884,           0.
   2333,          -6.,   143.058884,           0.
   2334,           9.,   129.966339,    21.047205
   2335,           9.,   127.078102,   5.46983767
   2336,           9.,    139.30159,   8.03832245
   2337,           9.,   140.285309,   15.7925043
   2338,           9.,   126.790932,   19.3889732
   2339,           9.,   124.058029,   15.8459749
   2340,           9.,   123.454796,   11.4671879
   2341,           9.,   140.891113,    11.482008
   2342,           9.,   125.026672,    8.0370512
   2343,           9.,   132.173233,   3.07835579
   2344,           9.,   137.283829,   5.50405931
   2345,           9.,   137.827866,    18.717308
   2346,           9.,   135.244217,   20.5300293
   2347,           9.,    132.84404,   22.2411213
   2348,           9.,   125.518112,   22.3003044
   2349,           9.,   125.726952,   2.71667981
   2350,           9.,   141.963379,   22.2701664
   2351,           9.,   138.284088,    22.002491
   2352,           9.,   122.603287,   22.4983234
   2353,           9.,   141.946625,   2.69248629
   2354,           9.,   138.641296,   2.73445606
   2355,           9.,   135.391708,   2.94189835
   2356,           9.,   122.377151,   2.69970608
   2357,           9.,   128.957733,   2.93323207
   2358,           9.,   143.454132,   13.9786205
   2359,           9.,   143.508392,   5.08111286
   2360,           9.,   121.422569,   8.07877445
   2361,           9.,   120.415977,    11.074194
   2362,           9.,   120.879333,   13.9704208
   2363,           9.,   120.911354,   17.3532104
   2364,           9.,   142.916916,   8.08268738
   2365,           9.,   143.920425,    11.083663
   2366,           9.,   143.416107,   17.2863045
   2367,           9.,   123.749222,   5.34422493
   2368,           9.,   135.386917,   22.9547291
   2369,           9.,   120.175301,   22.9589882
   2370,           9.,   140.599777,   5.35552073
   2371,           9.,   143.708908,   19.9323826
   2372,           9.,   120.777786,   5.09954119
   2373,           9.,   140.914276,   19.3335266
   2374,           9.,   123.422302,   19.6347332
   2375,           9.,   120.575371,   20.5117092
   2376,           9.,   128.078629,   22.5472965
   2377,   17.2999992,   16.9509926,   18.1226463
   2378,   17.2999992,   19.2259483,   16.1072121
   2379,   17.2999992,   20.3037014,   13.2654076
   2380,   17.2999992,   19.9373531,   10.2482586
   2381,   17.2999992,   18.2108288,   7.74695683
   2382,   17.2999992,   15.5196543,   6.33451939
   2383,   17.2999992,   12.4803457,   6.33451939
   2384,   17.2999992,   9.78917122,   7.74695683
   2385,   17.2999992,   8.06264687,   10.2482586
   2386,   17.2999992,    7.6962986,   13.2654076
   2387,   17.2999992,   8.77405262,   16.1072121
   2388,   17.2999992,   11.0490074,   18.1226463
   2389,   17.2999992,          14.,   18.8500004
   2390,   20.2999992,   16.9509926,   18.1226463
   2391,   20.2999992,   19.2259483,   16.1072121
   2392,   20.2999992,   20.3037014,   13.2654076
   2393,   20.2999992,   19.9373531,   10.2482586
   2394,   20.2999992,   18.2108288,   7.74695683
   2395,   20.2999992,   15.5196543,   6.33451939
   2396,   20.2999992,   12.4803457,   6.33451939
   2397,   20.2999992,   9.78917122,   7.74695683
   2398,   20.2999992,   8.06264687,   10.2482586
   2399,   20.2999992,    7.6962986,   13.2654076
   2400,   20.2999992,   8.77405262,   16.1072121
   2401,   20.2999992,   11.0490074,   18.1226463
   2402,   20.2999992,          14.,   18.8500004
   2403,   23.2999992,   16.9509926,   18.1226463
   2404,   23.2999992,   19.2259483,   16.1072121
   2405,   23.2999992,   20.3037014,   13.2654076
   2406,   23.2999992,   19.9373531,   10.2482586
   2407,   23.2999992,   18.2108288,   7.74695683
   2408,   23.2999992,   15.5196543,   6.33451939
   2409,   23.2999992,   12.4803457,   6.33451939
   2410,   23.2999992,   9.78917122,   7.74695683
   2411,   23.2999992,   8.06264687,   10.2482586
   2412,   23.2999992,    7.6962986,   13.2654076
   2413,   23.2999992,   8.77405262,   16.1072121
   2414,   23.2999992,   11.0490074,   18.1226463
   2415,   23.2999992,          14.,   18.8500004
   2416,   26.2999992,   16.9509926,   18.1226463
   2417,   26.2999992,   19.2259483,   16.1072121
   2418,   26.2999992,   20.3037014,   13.2654076
   2419,   26.2999992,   19.9373531,   10.2482586
   2420,   26.2999992,   18.2108288,   7.74695683
   2421,   26.2999992,   15.5196543,   6.33451939
   2422,   26.2999992,   12.4803457,   6.33451939
   2423,   26.2999992,   9.78917122,   7.74695683
   2424,   26.2999992,   8.06264687,   10.2482586
   2425,   26.2999992,    7.6962986,   13.2654076
   2426,   26.2999992,   8.77405262,   16.1072121
   2427,   26.2999992,   11.0490074,   18.1226463
   2428,   26.2999992,          14.,   18.8500004
   2429,   29.2999992,   16.9509926,   18.1226463
   2430,   29.2999992,   19.2259483,   16.1072121
   2431,   29.2999992,   20.3037014,   13.2654076
   2432,   29.2999992,   19.9373531,   10.2482586
   2433,   29.2999992,   18.2108288,   7.74695683
   2434,   29.2999992,   15.5196543,   6.33451939
   2435,   29.2999992,   12.4803457,   6.33451939
   2436,   29.2999992,   9.78917122,   7.74695683
   2437,   29.2999992,   8.06264687,   10.2482586
   2438,   29.2999992,    7.6962986,   13.2654076
   2439,   29.2999992,   8.77405262,   16.1072121
   2440,   29.2999992,   11.0490074,   18.1226463
   2441,   29.2999992,          14.,   18.8500004
   2442,   32.2999992,   5.90155315,    15.853653
   2443,   32.2999992,   8.61154461,   19.3894882
   2444,   32.2999992,   19.1281414,    5.4993434
   2445,   32.2999992,   5.28363419,   11.4663124
   2446,   32.2999992,   8.90768719,   5.46957397
   2447,   32.2999992,   22.7384319,   11.4795876
   2448,   32.2999992,   22.1158371,   15.7938643
   2449,   32.2999992,   6.85599804,   8.03659725
   2450,   32.2999992,   19.6584492,   18.7168217
   2451,   32.2999992,   14.0013666,    3.0765686
   2452,   32.2999992,   21.1669884,   8.05384064
   2453,   32.2999992,   11.7872801,   21.0451832
   2454,   32.2999992,   17.0776997,   20.5320034
   2455,   32.2999992,   17.2024212,   2.93819547
   2456,   32.2999992,   23.7939434,   22.2693443
   2457,   32.2999992,   14.6736803,   22.2414455
   2458,   32.2999992,   20.1155987,   22.0023613
   2459,   32.2999992,   7.35105419,   22.3037872
   2460,   32.2999992,   4.43230963,   22.4982281
   2461,   32.2999992,   23.7860737,   2.69820046
   2462,   32.2999992,   7.55678272,    2.7165699
   2463,   32.2999992,   4.20693588,   2.69956899
   2464,   32.2999992,   10.7873268,   2.93287206
   2465,   32.2999992,   20.4869003,   2.74004769
   2466,   32.2999992,   25.2905178,   13.9739799
   2467,   32.2999992,   25.3546505,   5.08441925
   2468,   32.2999992,   3.25177455,   8.07824516
   2469,   32.2999992,   2.24251866,   11.0719585
   2470,   32.2999992,   2.70821714,   13.9695253
   2471,   32.2999992,   2.74190688,   17.3536301
   2472,   32.2999992,   24.7651806,   8.08334255
   2473,   32.2999992,   25.7588253,   11.0823822
   2474,   32.2999992,   25.2477684,    17.284996
   2475,   32.2999992,    5.5787611,   5.34392357
   2476,   32.2999992,   2.00444603,   22.9585991
   2477,   32.2999992,   17.2178402,    22.955162
   2478,   32.2999992,   22.4479885,   5.35986567
   2479,   32.2999992,   25.5398521,    19.931242
   2480,   32.2999992,   2.60749435,   5.09934759
   2481,   32.2999992,   5.25286293,    19.636425
   2482,   32.2999992,   22.7452412,   19.3331051
   2483,   32.2999992,   2.40525436,   20.5119801
   2484,   32.2999992,   9.90553093,   22.5476913
   2485,   17.2999992,   24.8888893,           0.
   2486,   20.2999992,   24.8888893,           0.
   2487,   23.2999992,   24.8888893,           0.
   2488,   26.2999992,   24.8888893,           0.
   2489,   29.2999992,   24.8888893,           0.
   2490,   17.2999992,   21.7777786,           0.
   2491,   20.2999992,   21.7777786,           0.
   2492,   23.2999992,   21.7777786,           0.
   2493,   26.2999992,   21.7777786,           0.
   2494,   29.2999992,   21.7777786,           0.
   2495,   17.2999992,    18.666666,           0.
   2496,   20.2999992,    18.666666,           0.
   2497,   23.2999992,    18.666666,           0.
   2498,   26.2999992,    18.666666,           0.
   2499,   29.2999992,    18.666666,           0.
   2500,   17.2999992,   15.5555553,           0.
   2501,   20.2999992,   15.5555553,           0.
   2502,   23.2999992,   15.5555553,           0.
   2503,   26.2999992,   15.5555553,           0.
   2504,   29.2999992,   15.5555553,           0.
   2505,   17.2999992,   12.4444447,           0.
   2506,   20.2999992,   12.4444447,           0.
   2507,   23.2999992,   12.4444447,           0.
   2508,   26.2999992,   12.4444447,           0.
   2509,   29.2999992,   12.4444447,           0.
   2510,   17.2999992,   9.33333302,           0.
   2511,   20.2999992,   9.33333302,           0.
   2512,   23.2999992,   9.33333302,           0.
   2513,   26.2999992,   9.33333302,           0.
   2514,   29.2999992,   9.33333302,           0.
   2515,   17.2999992,   6.22222233,           0.
   2516,   20.2999992,   6.22222233,           0.
   2517,   23.2999992,   6.22222233,           0.
   2518,   26.2999992,   6.22222233,           0.
   2519,   29.2999992,   6.22222233,           0.
   2520,   17.2999992,   3.11111116,           0.
   2521,   20.2999992,   3.11111116,           0.
   2522,   23.2999992,   3.11111116,           0.
   2523,   26.2999992,   3.11111116,           0.
   2524,   29.2999992,   3.11111116,           0.
   2525,   14.3000002,   22.0984459,    15.853653
   2526,   14.3000002,   19.3884563,   19.3894882
   2527,   14.3000002,   8.87236691,   5.50071192
   2528,   14.3000002,   22.7163658,   11.4663124
   2529,   14.3000002,   5.88430691,    15.786972
   2530,   14.3000002,   19.0923119,   5.46957397
   2531,   14.3000002,    5.2666893,   11.4727421
   2532,   14.3000002,   21.1440029,   8.03659725
   2533,   14.3000002,    8.3578434,   18.7183895
   2534,   14.3000002,   13.9986334,    3.0765686
   2535,   14.3000002,   6.83445692,   8.05429554
   2536,   14.3000002,   16.2127266,   21.0451908
   2537,   14.3000002,   10.9365759,   20.5291824
   2538,   14.3000002,   13.3306341,   22.2404709
   2539,   14.3000002,   7.91069412,   22.0234032
   2540,   14.3000002,   20.6489449,   22.3037872
   2541,   14.3000002,   23.5676899,   22.4982281
   2542,   14.3000002,   10.7976627,    2.9384234
   2543,   14.3000002,   20.4432182,    2.7165699
   2544,   14.3000002,   23.7930641,   2.69956899
   2545,   14.3000002,   4.18900442,   22.2323112
   2546,   14.3000002,   4.21405411,   2.69854236
   2547,   14.3000002,    7.5133462,   2.74071288
   2548,   14.3000002,   17.2126732,   2.93287206
   2549,   14.3000002,   2.71138501,   13.9739227
   2550,   14.3000002,   2.64598393,   5.08612919
   2551,   14.3000002,   24.7482262,   8.07824516
   2552,   14.3000002,   25.7574806,   11.0719585
   2553,   14.3000002,   25.2917824,   13.9695253
   2554,   14.3000002,   25.2580929,   17.3536301
   2555,   14.3000002,   3.23652434,   8.08443356
   2556,   14.3000002,   2.24291968,   11.0812197
   2557,   14.3000002,   2.74761558,   17.2718925
   2558,   14.3000002,   22.4212379,   5.34392357
   2559,   14.3000002,    25.995554,   22.9585991
   2560,   14.3000002,   10.7911367,   22.9586105
   2561,   14.3000002,   5.26623058,   19.3366737
   2562,   14.3000002,   5.55278873,   5.36080456
   2563,   14.3000002,   2.44057012,   19.8931751
   2564,   14.3000002,   25.3925056,   5.09934759
   2565,   14.3000002,   22.7471371,    19.636425
   2566,   14.3000002,   25.5947456,   20.5119801
   2567,   14.3000002,    18.094471,   22.5476933
   2568,   29.2999992,   24.8888893,          25.
   2569,   26.2999992,   24.8888893,          25.
   2570,   23.2999992,   24.8888893,          25.
   2571,   20.2999992,   24.8888893,          25.
   2572,   17.2999992,   24.8888893,          25.
   2573,   29.2999992,   21.7777786,          25.
   2574,   26.2999992,   21.7777786,          25.
   2575,   23.2999992,   21.7777786,          25.
   2576,   20.2999992,   21.7777786,          25.
   2577,   17.2999992,   21.7777786,          25.
   2578,   29.2999992,    18.666666,          25.
   2579,   26.2999992,    18.666666,          25.
   2580,   23.2999992,    18.666666,          25.
   2581,   20.2999992,    18.666666,          25.
   2582,   17.2999992,    18.666666,          25.
   2583,   29.2999992,   15.5555553,          25.
   2584,   26.2999992,   15.5555553,          25.
   2585,   23.2999992,   15.5555553,          25.
   2586,   20.2999992,   15.5555553,          25.
   2587,   17.2999992,   15.5555553,          25.
   2588,   29.2999992,   12.4444447,          25.
   2589,   26.2999992,   12.4444447,          25.
   2590,   23.2999992,   12.4444447,          25.
   2591,   20.2999992,   12.4444447,          25.
   2592,   17.2999992,   12.4444447,          25.
   2593,   29.2999992,   9.33333302,          25.
   2594,   26.2999992,   9.33333302,          25.
   2595,   23.2999992,   9.33333302,          25.
   2596,   20.2999992,   9.33333302,          25.
   2597,   17.2999992,   9.33333302,          25.
   2598,   29.2999992,   6.22222233,          25.
   2599,   26.2999992,   6.22222233,          25.
   2600,   23.2999992,   6.22222233,          25.
   2601,   20.2999992,   6.22222233,          25.
   2602,   17.2999992,   6.22222233,          25.
   2603,   29.2999992,   3.11111116,          25.
   2604,   26.2999992,   3.11111116,          25.
   2605,   23.2999992,   3.11111116,          25.
   2606,   20.2999992,   3.11111116,          25.
   2607,   17.2999992,   3.11111116,          25.
   2608,   29.2999992,           0.,       21.875
   2609,   26.2999992,           0.,       21.875
   2610,   23.2999992,           0.,       21.875
   2611,   20.2999992,           0.,       21.875
   2612,   17.2999992,           0.,       21.875
   2613,   29.2999992,           0.,        18.75
   2614,   26.2999992,           0.,        18.75
   2615,   23.2999992,           0.,        18.75
   2616,   20.2999992,           0.,        18.75
   2617,   17.2999992,           0.,        18.75
   2618,   29.2999992,           0.,       15.625
   2619,   26.2999992,           0.,       15.625
   2620,   23.2999992,           0.,       15.625
   2621,   20.2999992,           0.,       15.625
   2622,   17.2999992,           0.,       15.625
   2623,   29.2999992,           0.,         12.5
   2624,   26.2999992,           0.,         12.5
   2625,   23.2999992,           0.,         12.5
   2626,   20.2999992,           0.,         12.5
   2627,   17.2999992,           0.,         12.5
   2628,   29.2999992,           0.,        9.375
   2629,   26.2999992,           0.,        9.375
   2630,   23.2999992,           0.,        9.375
   2631,   20.2999992,           0.,        9.375
   2632,   17.2999992,           0.,        9.375
   2633,   29.2999992,           0.,         6.25
   2634,   26.2999992,           0.,         6.25
   2635,   23.2999992,           0.,         6.25
   2636,   20.2999992,           0.,         6.25
   2637,   17.2999992,           0.,         6.25
   2638,   29.2999992,           0.,        3.125
   2639,   26.2999992,           0.,        3.125
   2640,   23.2999992,           0.,        3.125
   2641,   20.2999992,           0.,        3.125
   2642,   17.2999992,           0.,        3.125
   2643,  -30.2921906,   2.23675251,   7.28634357
   2644,  -30.2931538,   4.84959936,   7.70866156
   2645,  -30.2029934,   3.67785668,   4.73681021
   2646,  -29.7527161,   3.14114857,   9.84269142
   2647,  -27.5249939,   3.22037673,   6.90086079
   2648,  -21.3034191,   2.69673681,   11.7468538
   2649,  -24.3034172,   2.69673681,   11.7468538
   2650,  -21.3034191,   3.27421188,   8.83046436
   2651,  -24.8025208,   2.24001408,   8.99004459
   2652,   -24.318285,   3.26605654,   6.58280945
   2653,   -26.470026,   4.35231924,   9.07240868
   2654,  -27.2758465,   2.66706753,   12.1885843
   2655,  -25.1144638,   5.49560213,   14.3927736
   2656,  -27.0098534,   6.42071438,   15.2086658
   2657,  -28.3034172,   5.13963413,   14.0492496
   2658,  -16.2742252,   4.88056183,   23.2334976
   2659,  -16.1210232,   1.47934961,   22.9759731
   2660,  -18.5498619,   2.67284417,   22.8809967
   2661,  -16.1722031,   3.37776875,   20.7781849
   2662,  -16.6049652,   11.7541533,   20.3928032
   2663,  -20.1391468,   11.5997906,   20.3572464
   2664,  -19.3028641,   8.95994473,   19.0629807
   2665,  -16.2927284,   7.81800127,   21.2528591
   2666,  -18.7965984,   20.5747032,   4.68493652
   2667,  -20.7685452,   19.8997231,    1.9710902
   2668,  -22.2942677,   19.3964062,   5.17203999
   2669,  -23.8301506,   22.5544815,   4.66714382
   2670,  -19.2982883,   22.8025208,   2.10017347
   2671,   -16.195118,   22.6371574,   3.80079722
   2672,  -18.2926292,   25.6094551,    4.1401763
   2673,  -21.2942371,   22.3864822,    7.1023984
   2674,  -21.3005524,   25.9247799,   4.16551638
   2675,   -19.299448,   25.9247799,   2.08275819
   2676,  -22.3005505,    23.850708,   2.08218336
   2677,  -27.8039265,   23.4278145,   5.13608456
   2678,  -29.3914013,   21.5799599,   5.82107544
   2679,  -25.8358173,   20.8678112,   7.63555765
   2680,  -29.2221184,   22.5750103,   9.76572704
   2681,  -25.2942677,   19.3964062,   5.17203999
   2682,  -18.3297253,   25.2922249,   14.8899584
   2683,  -27.3000393,   20.7180882,   2.26617122
   2684,   -24.397974,   25.8283405,   4.21684885
   2685,  -25.3005505,    23.850708,   2.08218336
   2686,  -25.3034172,   5.85936546,   16.9851322
   2687,  -20.2394238,   5.92377472,   18.1435089
   2688,  -20.7206135,   4.46227551,   20.5062485
   2689,  -22.6085281,   6.51337051,    17.631897
   2690,  -21.2372894,   2.98002648,   17.7750072
   2691,  -23.4956036,   5.32279921,   20.2183704
   2692,   -20.614809,   2.21038389,   20.5286846
   2693,  -24.3021488,   7.12126684,   22.2137814
   2694,  -21.3301792,   7.10947227,   21.9416809
   2695,  -22.4046383,   8.92179394,   19.4310875
   2696,   -25.302866,   7.92588043,   19.0629807
   2697,   -30.323328,    12.715147,   20.4361515
   2698,  -28.3028641,   11.5128202,   20.4085293
   2699,  -30.5069542,   11.2156868,   22.3900471
   2700,   -28.714222,    20.191515,   19.1922989
   2701,  -30.1111507,   19.1727943,   22.2489166
   2702,  -18.7917385,   5.98683453,   22.0838909
   2703,  -24.3034172,   2.93468189,   17.8660583
   2704,   -18.334486,   2.87013602,    17.788538
   2705,  -21.2994499,   4.14929342,   22.9178162
   2706,  -30.4084911,   3.50982809,   19.5025616
   2707,  -16.5770473,   17.1659832,   22.5797443
   2708,  -19.5190735,   23.8039055,   22.7728748
   2709,  -24.3005505,   25.9247799,   20.8344841
   2710,  -19.2971325,    16.782526,   22.0272408
   2711,  -18.2971344,   19.0400543,   19.0629807
   2712,   -18.302866,   20.9247303,   22.0272408
   2713,  -25.3005505,    23.850708,   22.9178162
   2714,  -17.3544064,   14.6492023,   21.8949623
   2715,   -17.268774,   4.56475401,   6.75453281
   2716,  -16.3760891,   4.82363892,   4.18273449
   2717,  -20.2815342,   5.07560968,   5.04477835
   2718,  -18.9365005,   7.16159058,   6.66510963
   2719,  -18.7552834,   2.92456698,   4.39650679
   2720,  -19.2965832,   2.69673681,   7.58730936
   2721,  -18.3274555,    5.4210124,   8.91909218
   2722,  -30.2367649,   2.26221299,   13.4482613
   2723,  -28.3055992,   5.32777214,   11.0334244
   2724,  -29.1829453,   2.99744892,   15.8836889
   2725,  -30.0770187,   4.78428173,   13.7698107
   2726,  -25.2023201,   5.75107241,   11.0357752
   2727,  -25.4387703,   6.62039852,   7.05225468
   2728,  -27.8283691,   2.80937672,   20.5008717
   2729,  -27.2678375,   3.00018048,    17.777029
   2730,   -25.299448,   2.07521892,   20.8344841
   2731,  -28.2994461,   2.07521892,   22.9172421
   2732,  -27.3303871,   5.29609013,   21.0945187
   2733,  -29.5820351,   5.12015295,   22.2541332
   2734,  -30.2664986,   25.7203503,    19.798584
   2735,  -27.1803913,   25.1859512,   17.9270897
   2736,  -27.2994461,    25.925354,   22.9178162
   2737,  -27.2361317,   23.0504208,   20.0694427
   2738,  -30.4269676,   23.8533401,   21.5515461
   2739,  -27.4054985,   21.0177174,   22.1289291
   2740,  -23.5547962,   22.9228725,   17.7340622
   2741,  -21.3031425,   22.9945164,   19.9471607
   2742,  -22.2764683,   19.7975025,   18.3879547
   2743,  -19.2398052,   21.4656982,   17.1414242
   2744,  -21.3034191,   25.0653191,   17.8660583
   2745,  -29.3584194,   4.97345924,   2.74356723
   2746,  -27.3005524,   2.07521892,   2.08275819
   2747,  -29.2887936,   6.63853788,   5.44064903
   2748,  -30.1109123,   2.18729115,   2.00403023
   2749,  -27.1383839,   2.43642974,   4.46574068
   2750,  -28.4814663,    22.277195,   16.9923115
   2751,  -24.2485123,    25.388401,    16.895649
   2752,  -25.3316994,    22.098835,   15.0191565
   2753,  -25.4855614,    19.756815,   18.9949932
   2754,   -24.302866,   20.9247303,   22.0272408
   2755,  -30.0356846,   23.1611595,   13.9437714
   2756,   -28.917017,   25.1697044,   15.9591818
   2757,  -30.5541954,    21.844944,   12.4021645
   2758,  -21.7948742,   25.3032627,   10.7069664
   2759,   -24.437294,   25.0559978,   13.7085419
   2760,  -22.2998905,   22.2379131,   10.9740686
   2761,  -21.3025627,     25.24049,   13.6653013
   2762,   -19.264555,   25.5009956,    11.421277
   2763,  -21.4344788,   25.0077839,   7.75387287
   2764,  -29.5543232,   15.7487268,     2.587147
   2765,  -29.2826061,   18.3533115,   5.31833076
   2766,  -24.3984032,   25.7567215,   10.0783844
   2767,  -23.0524673,   12.3423529,   22.3099251
   2768,  -22.2350922,   14.5462608,    22.661253
   2769,  -16.1992683,   26.4532223,   23.3484783
   2770,  -19.0405731,   26.4269161,   23.0326805
   2771,  -25.2356071,   14.5507126,   22.6814632
   2772,  -24.8014317,   10.9938536,   20.4492188
   2773,   -22.471859,   6.46170855,   8.20833778
   2774,  -16.3624916,   7.25825548,   6.10702562
   2775,  -17.0766449,   7.45233297,   2.20622587
   2776,  -19.3470287,   8.60548306,   4.41516352
   2777,  -16.2948494,    19.624506,   2.38140392
   2778,  -17.3058624,   15.7253389,   3.09615993
   2779,  -16.2464333,    17.486084,   5.00947762
   2780,  -18.3544903,   17.6953506,   4.36578417
   2781,  -16.2536469,   20.2700939,   6.35131884
   2782,  -17.1939907,   23.1177654,   5.80660963
   2783,  -18.2965813,   21.4627323,   7.24967766
   2784,  -16.3219395,   22.4772854,   17.8701038
   2785,  -17.2999973,   22.1406364,   15.9470253
   2786,  -28.2971325,   9.90686417,   22.7009792
   2787,  -28.2895432,   7.20451593,   22.5409336
   2788,  -23.3605843,   24.5466843,   6.76894855
   2789,  -30.3180542,   8.16729164,   19.8072853
   2790,  -27.8052502,   8.06217861,   19.5587463
   2791,  -16.2992935,   25.6983795,   11.8883295
   2792,  -16.5260105,    23.999094,   9.45979691
   2793,  -18.1749973,   25.7081547,   7.32862186
   2794,  -20.4559803,   17.5704975,   2.22760892
   2795,   -16.539259,   23.4998798,   14.0113649
   2796,  -18.3824711,   22.7226963,   10.8957186
   2797,   -24.299448,   4.14929342,   22.9178162
   2798,  -30.2177715,   6.00553751,   17.9482708
   2799,  -24.5502758,   26.1849003,   23.1057396
   2800,  -21.3005524,   25.9247799,   22.9172421
   2801,  -21.3028641,   20.9247303,   22.0272408
   2802,   -17.731144,    25.364624,   18.0633965
   2803,  -24.2942696,   20.5853882,   2.58972049
   2804,  -22.3005505,   4.14929342,   2.08218336
   2805,  -18.5590611,   4.40395689,   1.97573364
   2806,  -21.3028641,   7.41461325,   2.58972049
   2807,  -22.2949142,   9.64195251,   5.32601213
   2808,  -24.5315914,   5.30970955,   4.58824873
   2809,  -16.4039097,   2.04923534,   2.88964176
   2810,  -21.3005524,   2.07521892,   4.16551638
   2811,  -19.1125679,   2.12927747,   2.03606367
   2812,  -23.9506626,   14.5188932,   2.22784305
   2813,   -27.224823,   13.8815975,   2.05376625
   2814,  -26.3864822,   13.9407196,   4.22760391
   2815,  -26.9415512,   16.7254238,   3.79516602
   2816,  -30.2514153,   20.3688068,   17.4863033
   2817,  -25.0191441,   17.2031231,   4.75603104
   2818,  -25.1639824,   17.6281796,   2.18544793
   2819,  -22.2841949,   13.5391426,   4.25913906
   2820,  -20.4527531,   15.4120378,   3.45837092
   2821,  -25.3062649,   22.5944195,   9.96047306
   2822,  -27.3389759,   22.7207375,   12.0079679
   2823,    -26.23773,   24.8351421,   7.04540825
   2824,  -28.1625252,    25.402813,   10.5866289
   2825,  -28.0985794,   16.5687466,    20.422657
   2826,  -29.2999992,   13.2237082,   21.9191227
   2827,  -30.3638287,   24.6463737,   3.63968229
   2828,  -30.5969238,   26.5028458,   2.01738024
   2829,  -28.3005524,    23.850708,   2.08218336
   2830,  -27.3636265,   25.8784351,   4.23223114
   2831,  -29.6049805,   22.1607208,   3.15464711
   2832,  -30.1655331,   24.1971092,   6.46297598
   2833,  -28.2277527,   25.8778553,   2.08952975
   2834,  -28.1528435,    8.2855444,   5.22982454
   2835,  -29.3188019,   9.43371964,   2.61326551
   2836,  -25.3005505,   4.14929342,   2.08218336
   2837,  -27.1012478,   7.23802519,   2.87923574
   2838,  -28.3360081,   6.80354929,   7.93396425
   2839,  -16.2793407,   19.5830021,   20.5468082
   2840,  -16.2209244,   23.1745396,   20.8550224
   2841,  -18.8874302,   3.08956599,   10.9260578
   2842,  -18.1779995,   2.26836205,   13.6690502
   2843,  -16.6173592,   4.62197351,   13.6927919
   2844,  -19.2505989,   5.53401756,   12.2075472
   2845,   -16.368721,   3.13419056,   9.39812183
   2846,  -16.6404877,   6.64063406,   18.2416401
   2847,  -19.1753578,   8.40255642,   22.6801357
   2848,  -25.2897053,   9.59413528,   5.29631662
   2849,   -24.302866,   7.41461325,   2.58972049
   2850,  -19.0150642,   13.7972345,   4.44968557
   2851,  -16.2880211,   12.3746281,   4.05827713
   2852,  -19.4257126,   13.5400686,   2.13145661
   2853,  -15.9239006,   15.2414322,   20.5043716
   2854,  -30.2307205,   16.4410744,    22.635891
   2855,  -28.6780586,   24.5915146,   13.3647947
   2856,  -28.1620693,   21.9941444,   14.5554161
   2857,  -22.3004265,   22.0093918,   14.9787178
   2858,   -22.276535,   2.06978631,   22.9526787
   2859,  -24.3005505,   2.07521892,   4.16551638
   2860,  -22.2375698,   2.14926815,   2.01815701
   2861,  -24.5969257,   2.06549764,   2.12846637
   2862,  -30.1197224,   2.27600288,   22.9593544
   2863,  -17.9877453,   25.7335396,    20.579073
   2864,  -21.9311981,   11.1655054,   3.46114135
   2865,  -22.2531776,   25.8695335,   2.07026649
   2866,  -25.2531757,   25.8695335,   2.07026649
   2867,  -18.1177063,   10.4506121,   5.25429916
   2868,   -18.302866,   10.3853436,   2.11755848
   2869,  -24.3007164,   10.2544937,   22.7552986
   2870,  -22.3034172,   5.38428545,    10.996274
   2871,  -22.0525608,   5.35706568,   14.2841101
   2872,  -16.2807159,   4.73323679,   16.9421711
   2873,  -16.1908722,   12.3175697,   22.9789715
   2874,  -28.6122875,   25.7786961,   7.41958761
   2875,  -18.3731346,   5.75019121,   15.9039183
   2876,  -21.5253887,   10.2707195,   22.9068451
   2877,  -16.2923622,   9.15834522,   3.89181995
   2878,  -22.2376328,   17.6751175,   22.6520729
   2879,  -27.6794834,    15.382081,   22.8749199
   2880,  -25.5321293,   18.0604458,   22.5009422
   2881,  -19.1886711,   11.6379442,   22.7733898
   2882,  -25.0497227,   1.81510162,   23.1057396
   2883,  -28.2789459,   5.85791254,   16.9172764
   2884,  -29.3121529,   18.2619839,   2.41619563
   2885,  -24.5423565,   2.55356741,   14.7938204
   2886,  -25.0017395,   17.0340214,   19.9497433
   2887,  -19.3034172,   22.8603649,   14.0492496
   2888,  -19.3763103,   11.3821812,   4.05748796
   2889,  -15.9740591,   10.6101656,   4.96788216
   2890,  -28.1212044,    11.266016,   4.36651278
   2891,  -24.4663868,   11.3607512,   2.12385678
   2892,  -30.5093555,   10.4826593,   5.30470943
   2893,  -21.0530777,   25.7974892,   20.4271374
   2894,  -21.3034191,   2.57420182,   14.8357811
   2895,   2.54586554,   79.7897873,   11.7865877
   2896,   5.17648172,   82.8193741,   12.1064615
   2897,    5.3277626,   78.9950867,   11.9708023
   2898,   4.18421745,    80.872757,    9.5470829
   2899,   3.69668722,   76.8292389,   10.4524431
   2900, -0.779228151,   74.0280533,   12.9579554
   2901,  0.757500768,   76.5177383,   12.4842987
   2902,  -2.88355422,   75.9456635,    14.015893
   2903,   1.26365125,   74.6708527,   15.3328686
   2904, -0.450712442,   78.5775681,   14.1410589
   2905,  -1.16058886,   78.8318787,   9.63740158
   2906,   -3.4236896,   79.9719467,   12.3425388
   2907,  0.452266037,   81.4536133,   10.6799984
   2908,   1.40192068,   81.7555923,   17.2410088
   2909,   1.15468287,   81.5644836,   14.0929785
   2910,  -1.65136325,   80.4838486,   15.9501238
   2911,  -2.18246841,   76.2693253,   11.3349047
   2912,  -4.85601377,   79.2486649,   14.8058357
   2913,  -1.21425617,   82.9435577,   13.9765501
   2914,   1.08944356,   83.6587906,   12.4026203
   2915, -0.669591546,   84.8287201,    10.382617
   2916,   3.23785281,    84.487175,   10.3915215
   2917,  0.780941665,   83.3855896,   8.66922379
   2918,  -1.93753803,   86.4401245,    12.665452
   2919,   2.42268634,   86.6718979,   12.7054052
   2920,   3.84876776,   83.0793839,   15.8228664
   2921,  -24.5308189,   34.2926292,    2.2741282
   2922,  -28.1821442,   33.0428581,    1.6543771
   2923,  -2.77821302,   81.6570358,   9.34621811
   2924,  -2.95599627,   82.8199768,   6.75487566
   2925,  -14.0621309,    79.497879,   10.6829681
   2926,  -14.5414591,   79.2294464,   13.9199352
   2927, -0.243239641,   87.8401642,   10.0994062
   2928,   2.67617297,   85.8439102,   7.12536716
   2929,  -3.94167471,    84.199646,   10.9223862
   2930,   4.63888264,   76.5960083,   18.4089985
   2931,   4.67920732,   74.3042679,   19.5666866
   2932,   6.59035158,   76.9085007,   20.2161331
   2933,   3.68334484,      75.4944,   22.6310978
   2934,   4.35251951,   78.4403458,    15.908165
   2935,   6.60576153,    77.225502,   14.5150747
   2936,   4.42413282,   74.5844879,   15.3345022
   2937,   6.91926718,   78.7957535,     16.82444
   2938,   1.84156382,   85.5618668,   14.8148031
   2939,  0.739885807,   84.3884277,   17.0568619
   2940,   2.74800372,   86.2418594,   17.8028374
   2941,   3.45584655,   80.4673309,    14.926034
   2942,    6.5607419,   80.8362274,   14.5233221
   2943,   6.46812057,    84.528038,   14.4254923
   2944,   5.91382027,   82.3362045,   17.6974659
   2945,   5.06742191,   86.1393051,   16.6019459
   2946,  -4.18421745,   83.1883163,   14.9230633
   2947,  -6.56638479,   82.0299301,   12.6755953
   2948,  -7.62836075,   83.0486755,   15.3418131
   2949,  -5.75001907,   85.7013474,   12.5887318
   2950,  -1.69930184,   83.7863235,   17.0889511
   2951,  -5.03892612,   81.3565292,   17.4728699
   2952,  -3.66298246,   83.6611786,   18.6653996
   2953,  -6.52748251,   83.5338364,   18.3187084
   2954,  -5.20627403,   86.0039368,   16.6849022
   2955,   1.58165741,   79.1063156,   9.07191849
   2956,   7.43417931,   84.2948685,    9.6936512
   2957,   5.50651693,   86.5516205,   12.0153484
   2958,  -29.0106659,   34.6605225,   3.46682262
   2959,  -29.2375984,   30.0406933,   1.58130133
   2960,   5.03909206,   85.0746231,   8.40082455
   2961,   7.85142088,   81.6180267,   11.2693911
   2962,   4.84152317,   78.3720398,   8.32137966
   2963,   7.33630323,    78.313118,   8.32553768
   2964,   2.83258295,   82.4500732,   7.00331306
   2965,    3.2282114,   79.5356522,   6.41029882
   2966,   26.0110817,   49.5151787,    2.5424366
   2967,   2.48508143,    76.918129,    6.0843873
   2968,   4.54525566,    75.143837,   7.71590805
   2969,   1.53006911,   76.2558212,   8.36951256
   2970,   1.73386347,   74.2721024,   5.75492907
   2971, -0.257810265,   76.2753983,   4.95019817
   2972,  0.224059656,   78.7722931,   6.50202322
   2973,   1.16283917,   78.0973358,   3.68962574
   2974,   3.09487677,   75.6636581,   2.36552143
   2975,   3.76879215,   80.2539978,   18.4893055
   2976,   3.63080835,   83.8479385,   18.4716797
   2977,    3.6882453,   76.8724213,   13.5019855
   2978,   1.00112879,   78.0521088,   17.8882275
   2979,  -4.18274403,   103.057335,   1.91656256
   2980,  -6.45993567,   83.5023193,   10.3363066
   2981,  -3.72476053,   87.6159286,   9.76533318
   2982,  -5.20929575,   86.3135452,   7.57589102
   2983,  -4.46561146,    100.10421,   4.45907545
   2984,   -3.7074368,   77.7289963,   8.35603333
   2985,  -3.38157701,   80.1946945,   7.27657366
   2986,  -5.86476231,    79.866478,   10.5978403
   2987,  -6.95521641,   81.4624786,   7.99956417
   2988, -0.272832096,   81.5393982,    7.5375309
   2989,  -5.30185413,   75.9013748,   10.8040113
   2990,  -7.36523867,    78.437233,    12.760603
   2991,  -6.14299154,   76.9581985,   14.7859936
   2992,  -9.12644958,   82.9534454,   11.9932785
   2993,  -9.97870827,   83.0367508,   9.25424767
   2994,   -9.0119009,    80.194809,   10.8493338
   2995,   -2.5924561,   85.9522324,   7.02580023
   2996,    20.302063,   68.3518448,    22.947607
   2997,   2.01682258,   113.839127,   20.7995739
   2998,   3.00382042,   109.206055,   18.1879787
   2999,   2.51036143,   112.384636,   22.8074303
   3000,  0.671379328,   108.873314,   20.5812721
   3001,  -1.01733291,   88.5268707,    15.856885
   3002, 0.00423239032,   87.0350037,   18.6615028
   3003,  -2.52345848,   89.4165344,   18.4712238
   3004,  -2.78560972,   86.2269745,   17.9461555
   3005,  0.268108487,   90.3358002,   19.1773987
   3006,   1.66308379,   89.4271317,   12.5516968
   3007, -0.127959833,   92.6602631,   14.9278727
   3008,   1.83244789,   89.5061798,    16.598999
   3009,   8.48200703,    80.990799,   17.1774597
   3010,   8.60142803,     84.22258,   19.4344482
   3011,   7.76139259,   85.3782349,   16.6457539
   3012,   10.3015804,   82.6888046,   17.6250992
   3013,   6.07338285,   82.4137344,   20.6428566
   3014,   9.64815903,   81.7362213,   20.9004898
   3015,   5.52076197,   85.1857758,   20.1470547
   3016,   6.18744612,   79.9075241,    19.957037
   3017,  -4.87281227,   89.8112488,   12.7667952
   3018,  -1.63872325,   89.4514999,         12.5
   3019,  -26.4975681,   33.7210922,    4.4301281
   3020,  -7.86237621,   80.6204834,   19.2026329
   3021,  -5.86327124,   81.7695236,    20.918972
   3022,  -5.46940756,   85.3410568,   20.0524693
   3023,  -7.84294462,   85.5928497,   16.6451263
   3024,  -10.0073414,   86.5467453,   20.5503483
   3025,  -9.19843483,    83.276329,   18.2120934
   3026,   15.1259117,   79.3865433,   10.6816425
   3027,   13.0273771,    81.130867,   13.3779039
   3028,  -1.14281392,   73.2325058,   16.5190239
   3029,   1.17844367,   74.7250748,    18.903738
   3030,  -1.79553878,    77.732254,   16.5708504
   3031,  -3.05503178,   75.4213257,   17.1487637
   3032,   26.2730675,    53.749691,   4.76305342
   3033,   11.6768961,   80.9059448,   19.1952534
   3034,   11.8068266,   78.8857956,   20.2907734
   3035,   -5.5750289,   76.4910202,   18.1413136
   3036,  -2.27000046,   76.7410889,   20.5573635
   3037,  -3.16479993,   79.4092102,    18.622036
   3038, -0.422856331,   79.9612198,   19.1813965
   3039,  -28.0183258,   31.0700779,   13.5694752
   3040,  -29.8956623,   32.4868279,   14.8121758
   3041,  -4.98314571,   90.6438751,   7.91897726
   3042,  -2.55005789,   89.3247452,   7.54284859
   3043,  -6.20044041,   89.5876541,   5.83332825
   3044,   -6.1978302,    85.409523,   5.11632395
   3045,   -7.8186698,   86.7387924,   7.62113905
   3046,  -4.26136017,   87.3247604,   4.80430937
   3047,  -17.7894955,   75.2331696,   8.06324959
   3048,   3.25199509,   88.0652847,   10.4347992
   3049,  -22.4094849,   59.3379669,   23.3207092
   3050,  -21.6085739,   60.5014191,   19.7931805
   3051,  -3.80881429,   112.231285,   18.6201611
   3052,  -3.94032097,   110.530014,    20.869669
   3053,  -5.13797903,   113.897034,   20.0866146
   3054,  -2.01105928,   109.781898,   19.0757294
   3055,    1.6271342,   84.1699905,   4.62226534
   3056, 0.0918046013,   85.1314926,   6.49486637
   3057,  0.592146218,    87.869133,   7.23014307
   3058,   3.80662656,   87.8124695,   14.9292316
   3059,   -3.8749845,   87.8413391,   15.4542542
   3060,   3.51788735,   78.5671844,   20.6586437
   3061,   2.66089988,   80.0728302,   23.1044846
   3062,   5.38171577,   78.3859024,   22.6674347
   3063,   4.64876366,   81.2135391,   22.5621567
   3064,   4.96898603,   89.5529938,   12.5042496
   3065,  -3.74337506,   103.564232,   4.19682693
   3066,  0.227372453,    74.415947,   10.4808588
   3067,   3.14133596,   73.6337357,   10.5480967
   3068,   1.51735473,   71.1101379,   12.7430458
   3069,   -6.9077177,   78.1278458,   19.8540783
   3070,  -9.80522633,   80.0826874,   17.3618336
   3071,  -6.91971254,   78.7920456,    16.599844
   3072,  -4.20776701,   79.4013824,   21.0240574
   3073,  -2.34113431,   81.7142105,   20.7175426
   3074,  0.585326433,   76.6131439,   20.6337166
   3075,   1.97047758,    77.378479,    23.095129
   3076,   9.06268406,   76.8789597,   17.6037827
   3077,   9.56375122,   77.2927628,   14.7149048
   3078,   2.68150759,   76.4773331,   16.4035206
   3079,  0.888185084,    78.657341,    21.093729
   3080,   7.72491741,   75.9757156,    23.033556
   3081,   5.38976908,   89.3270035,   7.19570112
   3082,   4.83004284,   86.9112778,   4.86151218
   3083,    6.7065506,   81.5020523,   6.77779102
   3084,   3.93756223,   82.5245056,   4.61220121
   3085,   6.54785633,   84.5727463,   4.95207739
   3086,  -5.10532522,   72.9790649,   9.91447258
   3087,  -6.54021978,   73.9000397,         12.5
   3088,  -3.24345613,   73.8741989,   11.7989883
   3089,   -3.4217248,   69.3756256,   9.37499905
   3090,  -2.01211596,   71.7361374,   10.8203869
   3091,  -5.62653732,    71.138237,   11.4550734
   3092,    -5.058146,   74.9641037,   7.82582474
   3093,  -7.36838579,   74.3451538,   10.5481939
   3094,  -3.21266985,   73.0766907,    8.2481041
   3095,  -5.15085316,   70.2429276,   7.30157948
   3096,  -6.37331152,   72.6316452,   7.31701851
   3097,  -9.50521183,   77.2114792,   17.3876629
   3098,  -8.92362118,   76.5496902,   14.5935421
   3099,  -8.43373775,   76.0437164,   12.5583506
   3100, -0.177006438,   73.5530319,   4.02468681
   3101,   2.27716303,   71.3475571,   4.69022894
   3102, -0.771340251,   73.4749069,   6.70303059
   3103,  -1.46301913,    70.389389,   7.12909651
   3104,  0.488238484,   69.1581726,   4.40796089
   3105,  -1.33941162,   69.7964554,   2.09463716
   3106,   1.87426925,   72.8212509,   2.33450103
   3107,  0.320473611,   74.9680634,   2.07145309
   3108,  -1.46637189,   101.981667,   3.41601682
   3109,  -1.28495026,   99.6657333,   2.11246347
   3110,   1.34976125,   102.465347,   1.73824811
   3111,   1.66565406,   104.728233,   4.03064442
   3112, -0.305063367,   99.5788574,   4.64591742
   3113,  0.295010746,   103.461136,   6.86054277
   3114,  -1.79959977,    103.67041,   1.97403395
   3115,  -1.64687955,   104.751717,   4.07614946
   3116,   2.99923968,   101.908012,   4.14845467
   3117,   14.7488461,   80.0701218,   1.37143528
   3118,   7.62651587,   75.2874451,   17.6086502
   3119,  -1.49856889,   74.5890656,   18.9104214
   3120, -0.756181359,   74.2746506,   21.2818165
   3121,  -4.93550396,   74.7741318,   15.3650942
   3122,  -7.33807945,   74.7176361,   17.6495571
   3123,  -4.38902283,   74.3042679,   19.5666866
   3124,  -8.96703529,   76.3061752,   19.9449978
   3125,  -7.23342896,   74.3380966,   20.3727264
   3126,  -5.49299145,    76.098259,   22.8524494
   3127,  -7.58560848,   74.8887711,   14.8148718
   3128,   1.55732536,   80.5925064,     4.290802
   3129,    1.9093163,   89.8663177,   20.9346104
   3130, -0.0350985676,   85.9339905,   21.6906605
   3131,  -1.22259533,   89.4589005,   21.3443012
   3132,   1.79929709,   84.2539825,    23.031683
   3133,  -1.81327367,   84.2539825,    23.031683
   3134,  -1.41078532,   84.2787323,   20.1786175
   3135,  0.142050669,   82.9666672,   22.0457478
   3136,   3.09376884,     86.21138,   20.4271011
   3137,   1.55611455,   84.4128418,   20.3543911
   3138,   1.62566054,   86.8904266,   23.0759716
   3139,   7.00603962,   86.8754425,   8.31061363
   3140,   1.66186142,   86.9987488,   4.74459314
   3141,   3.74885821,   86.0947418,   2.40615463
   3142,   2.85792017,   88.3087311,    2.3589015
   3143,   4.14590311,   89.5603256,   4.61854696
   3144,  -11.3814573,   78.6706772,   7.25498343
   3145,  -8.98378849,    76.883461,   7.56739759
   3146,  -11.1166553,   78.8870773,   10.0821228
   3147,  -8.65477562,   78.9605026,   5.67887783
   3148,  -8.72951317,   81.6174088,   5.64373922
   3149,  -9.48781967,   79.9801178,   8.28259754
   3150,  -12.9688148,   80.9498749,   7.73047876
   3151,  -14.6681108,    79.455246,   7.75399971
   3152,   -11.944314,   79.3217239,   4.59035921
   3153,   23.7583542,   35.5566635,   6.54279375
   3154,   24.5263653,   34.5841789,   9.20894814
   3155,   26.8838806,   33.5908852,    6.9216013
   3156,   26.1564579,   37.6202087,   7.74771118
   3157,   23.5378933,   32.3987923,   7.59418011
   3158,   24.2366886,   32.9006577,   5.04125452
   3159,   21.3034306,   33.5676003,   5.04018641
   3160,   22.7439861,   35.9854088,   2.07978654
   3161,   25.5638771,   36.5166206,   4.48442411
   3162,   23.3810596,   38.2697983,   8.08697605
   3163,  -24.2361813,   32.9184685,   7.72368193
   3164,  -27.8928108,   30.9403362,   7.31801224
   3165,   -26.425108,    34.940773,   8.23725796
   3166,  -26.3564129,   36.8516541,   5.12996912
   3167,  -28.5413837,   34.0819626,   6.57248306
   3168,   9.08289242,   76.6206589,   20.5766449
   3169,  -27.4758663,   37.6958427,   2.68475008
   3170,  -23.8724232,   37.3422279,   3.69957542
   3171,  -22.9096489,   34.0172081,   5.36550951
   3172,   25.3564377,   30.2072639,   10.1824207
   3173,   25.4231739,   30.2245712,   13.2988539
   3174,   21.8674068,   30.5920525,   13.2648344
   3175,  -29.8594799,   31.8556175,   5.01453495
   3176,   6.34793425,   73.6404648,   12.5124683
   3177,   6.62084055,   76.9285889,   10.4203424
   3178,  -0.18175289,   110.871063,   11.5268183
   3179, -0.352247953,   108.192215,   11.2548323
   3180,   3.25295472,   109.030121,   8.46353912
   3181,   3.44267535,   108.925224,   11.4908857
   3182,   1.56128931,   111.515396,   14.8590574
   3183, 5.71172768e-06,   109.169991,      14.0625
   3184,  -2.24150467,   112.565201,   12.5005312
   3185, 0.000525478972,   113.693199,   11.7229137
   3186,   18.5517368,   34.4976807,   11.7178478
   3187,   19.6049347,   36.8893471,   11.7000036
   3188,  -2.99999928,   109.169991,     13.28125
   3189,  -2.99999928,   109.169991,     10.15625
   3190, -0.906108499,   95.2710648,   11.3872013
   3191,   2.89588022,   94.6396332,   11.6743813
   3192,   2.24192166,   95.5850143,    14.961092
   3193,   1.29113603,   98.9265442,   12.0046444
   3194,  -1.81969941,   97.5131989,   9.47697639
   3195,  0.982999742,   96.2757797,   9.20554924
   3196,  -1.11435235,   96.2949142,   15.0347281
   3197, -0.219575956,   92.2560577,   10.0886459
   3198,  -2.77216411,    94.400528,   9.72721863
   3199,  -3.91946173,   91.7114944,   10.4801159
   3200, -0.673709691,   95.0896225,   6.93925047
   3201,  -3.50704646,   91.9618378,   13.3135557
   3202,   27.4629917,   34.4941635,   19.7649632
   3203,   29.7019329,   32.6138268,   20.7474041
   3204,   28.1971092,   33.9553757,    22.888113
   3205,   26.3399181,   32.4403572,   20.6084938
   3206,   24.7337799,   33.4072533,   22.9065742
   3207,   24.6479111,   34.3104744,    18.807415
   3208,   25.6221485,   36.5951195,   20.8241005
   3209,    25.675827,   36.6536446,   16.7560596
   3210,   27.5987263,   36.3999481,   22.8096352
   3211,   28.5413322,   36.7910118,   18.7781372
   3212,  -9.17413139,   77.1629791,   10.4953203
   3213,  -11.4435091,   79.3305435,    12.522356
   3214,  -6.73011732,   91.9221039,   15.5065508
   3215,  -6.05023336,   89.2505722,    16.742979
   3216,  -3.77390409,   92.7742844,   15.4126043
   3217,  -9.16632366,   89.1395111,   14.7201824
   3218,  -6.71606064,   88.2420502,   14.7632952
   3219,   -4.7375927,   97.3952408,   1.99263704
   3220,   2.11722326,   69.7233734,   10.9448624
   3221,   3.02615333,   68.5177689,   8.52360916
   3222,   3.72584009,   67.6170807,   13.0208292
   3223,   1.44909966,   65.3327179,   11.4201355
   3224,   4.86908817,    71.042038,   13.1826429
   3225,  0.833695233,   72.1682053,   8.62004089
   3226,   4.06826925,   71.0685196,   7.59082699
   3227, -0.585389256,   69.5264587,   9.70827293
   3228,   0.32968092,   67.3165894,   8.85066891
   3229, -0.141525194,   68.8263168,   13.2741108
   3230,   18.5315857,   31.8368034,    14.582325
   3231,  -8.63905144,   86.3194809,   13.0069046
   3232,  -9.04074574,   80.2458725,   14.1339884
   3233,  -10.3508444,   86.0423279,   10.2997627
   3234,  -11.5335207,   83.9966583,   11.1825953
   3235,  -10.4886456,   86.1310043,   14.6983528
   3236,  -10.1159554,   83.2616882,   14.6539154
   3237,   12.1949043,   82.7390747,   20.7107449
   3238,   11.1499777,   84.8659744,   20.8262596
   3239,   7.90300941,   82.9219284,   22.6927261
   3240,   10.6611223,   80.7616882,   22.9509888
   3241,   10.2719259,   83.7325974,   23.0440331
   3242,   25.9861679,   31.8511848,   15.1342373
   3243,   28.2524223,   30.4198723,   15.8012877
   3244,   25.3069973,   30.2340298,   17.7408295
   3245,   7.88538265,   90.6379471,   17.6925774
   3246,   6.53927708,   72.8293228,   17.0447655
   3247,   18.5517368,    34.497673,   14.8428478
   3248,   19.7222996,   37.1379662,   18.4628601
   3249,   20.0161095,   36.7584724,   15.0831289
   3250,   19.8826618,   36.7199516,   8.74880028
   3251,   18.4021015,   34.2740097,   8.56712151
   3252,  -2.32807732,   75.7900696,   5.77435493
   3253,  -12.8365831,   81.3136139,    11.381752
   3254,  -4.53513479,   83.8397369,   2.54207683
   3255,  -1.54733562,   84.1254959,   4.45969772
   3256,  -4.33349943,   81.2034302,   2.41344285
   3257,  -1.14578402,   81.2552948,   4.61747885
   3258, -0.750709534,   111.607704,   21.5252037
   3259,  -1.01655042,   108.540527,    22.839529
   3260,  -1.66666508,   106.169998,   17.7083302
   3261, 5.71172768e-06,   109.169991,      17.1875
   3262,  -2.99999928,   109.169991,     16.40625
   3263,   4.70270538,   83.9589615,   2.39065313
   3264,   1.42413938,   81.6635818,   1.85776603
   3265,   4.36288023,   81.4941101,    2.0062139
   3266,   4.01679564,   79.0488968,   3.99595141
   3267,    10.051487,   83.0279999,   14.7329655
   3268,   8.41344357,   86.3751831,   12.8977423
   3269,   10.5874758,   86.0695724,   14.0400648
   3270,   6.49782133,   88.2357254,    14.634016
   3271,    1.5610038,   71.2548904,    15.588274
   3272, -0.621441722,    69.252327,   17.1474953
   3273,  -1.80556285,   71.1339874,   15.0640173
   3274,   5.87365532,   76.8598328,   5.40924406
   3275,   4.17156029,   74.9660797,   4.67887974
   3276,   7.58909273,   79.0999374,   5.70974398
   3277,   6.39047527,    73.704277,   9.75811386
   3278,   4.73177814,   88.0000534,   20.0568104
   3279,   3.15740895,    88.726532,   22.7756729
   3280,   3.96733189,   86.0896454,   22.6677094
   3281,   4.66353416,   83.8176651,   22.5996246
   3282,  -5.55054855,   98.0812759,   17.6386471
   3283,  -5.13415766,    97.546608,   14.7916708
   3284,  -4.44732237,   101.028679,   15.4533062
   3285,  -2.96918464,   96.2325439,   17.8201885
   3286,   25.8001938,   50.6398926,         12.5
   3287,   27.2594147,   49.0317497,   10.2678795
   3288,   27.1253376,   48.6943398,    13.266777
   3289,  -2.99644089,   99.3196411,   14.2523127
   3290,  -3.50186038,   103.517624,   14.6158867
   3291, -0.734796643,   101.601929,    12.578125
   3292,  -4.37130499,   101.073906,    12.227705
   3293,  -1.85474074,   98.2275009,   12.0499277
   3294,  -4.51248789,   97.1269073,   11.7788944
   3295,   -3.2491734,   94.8305664,   12.9158363
   3296,   26.2587776,   32.3873062,    12.256012
   3297,   29.7891045,    32.431076,   14.3516169
   3298,   29.2600498,   34.9600105,   15.0925989
   3299,   24.8301601,   34.9790878,   13.2545195
   3300,   27.1705055,   33.3421021,   17.1634655
   3301,   28.4244366,   42.4579506,   4.19935751
   3302,    27.172905,   43.4273224,   1.94371045
   3303,   21.4776611,   30.9185009,   15.8428688
   3304,   23.5440273,   32.3683701,   12.7639732
   3305,   23.4034958,   32.6578598,   16.8674831
   3306,  -1.71544313,   92.4442368,   18.4406872
   3307,   1.76908207,   92.1609344,   17.9928436
   3308,  -21.5397816,   53.0531425,   2.40949035
   3309,  -24.0482082,   53.7404633,   2.15583253
   3310,  -22.5731201,   57.3638954,   2.82134604
   3311,   -22.368536,   54.2682877,   5.25874567
   3312,  -21.3411674,   50.2617188,   4.38866711
   3313,  -24.1242256,    51.749588,   4.55321598
   3314,  -22.8244247,   49.9721832,   1.99387085
   3315,  -6.10729361,   79.8760071,   5.07559919
   3316,  -3.68421865,    78.937027,   4.08428335
   3317,  -6.89324999,   78.4957428,   8.17906666
   3318,  -1.39957893,   78.4127502,   4.12795496
   3319,  -5.85896492,   76.8647919,   5.29618597
   3320,  -8.47448444,   84.2915802,   5.86879253
   3321,   21.3222446,   48.5421028,    8.0006094
   3322,   1.67965925,   90.8942719,   7.77016401
   3323,   3.73818874,   92.5549164,   9.61906719
   3324,  -12.7831039,   81.4116592,   14.4889154
   3325,   -11.567894,   78.9558182,   14.3764849
   3326,   21.4597721,   48.3906631,   11.2258282
   3327,   21.4349499,   48.7932281,   14.2026663
   3328,  -13.7321301,   80.0480881,   16.8893719
   3329,   3.63113952,   92.1318893,   14.4274225
   3330,  -1.54437125,    87.087265,   4.62626886
   3331, -0.416573435,   90.4514389,   5.71594667
   3332,  0.964916468,   89.5314941,   3.73335457
   3333,  -6.93407726,   88.8250122,   9.95902348
   3334,   21.2757282,   62.8244972,   10.4247808
   3335,    24.007328,   59.6832733,   10.4314747
   3336,   21.6085739,   60.5014191,   11.4568214
   3337,   21.6085739,   60.5014191,   8.33182144
   3338,   21.2202454,   44.9940872,   8.03986073
   3339,   28.2031517,   42.5723801,   21.0082245
   3340,   27.8218822,   47.3047333,   20.6670856
   3341,   2.26544261,   81.7822571,   20.3626728
   3342, -0.348638147,   79.7923355,   22.9363899
   3343,  -1.64775348,   78.7209473,   21.1899033
   3344,  -7.91707706,    83.064415,   22.6420403
   3345,  -5.76582336,   96.0771713,   4.06223011
   3346,   22.7956886,    36.772934,   18.3327141
   3347,   21.1474094,   38.9346695,   17.9674034
   3348,  -4.89279175,    88.073616,   20.4212761
   3349,  -3.21674228,   86.2386703,   20.3877468
   3350,   8.65542698,   82.7578583,   5.16967154
   3351,   10.3671513,   83.7083359,   1.88681591
   3352,   10.0553255,   86.2100906,   4.21993113
   3353,   11.5271692,   83.6383286,   4.14803743
   3354,   10.0502758,   82.8637619,   9.12548256
   3355,   9.90240002,   80.1214218,   9.28945541
   3356,    6.1088872,    81.573761,   4.01589108
   3357,   5.21740055,   90.6552429,   17.7990894
   3358,   10.1948404,   83.0598602,   11.8419466
   3359,   8.68187237,   88.4564209,   17.6955242
   3360,   29.9527569,   32.1682129,    17.004303
   3361,   19.5355148,   33.2720871,   23.0612125
   3362,   20.9975681,   30.8571968,   23.1575699
   3363,  -3.69662452,   72.7169724,   17.2720909
   3364,  -7.55390263,   80.2610397,   2.34932303
   3365,  -10.4826365,   80.8287277,   2.05642557
   3366,  -11.6749945,   83.9081879,   8.08498859
   3367,  -3.43422771,   74.8940506,   2.26519489
   3368,  -4.58171368,   74.1941452,   5.30656433
   3369,  -3.33153653,   71.4046173,   5.02188635
   3370,   21.2901459,   44.5384789,   17.3142891
   3371,   21.1990547,   41.7114143,   17.6422234
   3372,   24.8354263,   40.9168396,   15.7949133
   3373,   24.7298851,    39.709465,   18.4339943
   3374,   24.6811981,   43.9213982,   17.0158062
   3375,   10.3368111,   85.5121689,   7.37869358
   3376,   10.6396008,   85.9293747,   10.7899485
   3377,   19.1854763,   35.6674805,   20.6211739
   3378,   22.8571014,   62.4216309,   22.9639416
   3379,   21.6085739,   60.5014191,   20.8318233
   3380,   24.1283836,   60.3871765,   22.9128342
   3381,   21.3360786,   65.1927719,   22.8872337
   3382,   21.3163052,   62.8477364,   19.8241253
   3383,   22.4569607,   32.8705635,   1.93813574
   3384,   24.9165668,   33.2182312,   2.14605975
   3385,   25.5080395,   30.5571423,   4.75357199
   3386,   25.3559589,     30.23419,   7.03170013
   3387,   22.3518867,   30.2660275,   5.10412931
   3388,   25.0625134,    30.096262,   2.02463412
   3389,  -4.27982044,   101.094902,   7.02610874
   3390,  -3.82145429,   97.5365143,   6.97682762
   3391,  -2.83241725,   97.3521194,   4.51214314
   3392,  0.544521868,   99.5587082,   7.29306889
   3393,   2.68267298,   98.7803345,   4.34433222
   3394,   21.1900196,   41.6172981,   14.3794441
   3395,   1.65742922,   97.0827408,   2.33622599
   3396,   2.79140139,   100.165741,   2.07797027
   3397,    1.1887362,    95.153801,   4.24417734
   3398,     7.909338,   83.0535049,   2.29345655
   3399,   6.88700724,    85.348465,   2.26703429
   3400,   2.38317275,   92.1159515,   4.88800907
   3401,   4.93452168,   92.1858063,   6.69934654
   3402,   2.65579343,   93.9833069,   6.92156696
   3403, -0.361952186,   92.2934036,   3.86546111
   3404,   2.90163755,   94.3518066,     2.196877
   3405,   4.21760845,   91.4905472,   2.41910887
   3406,   3.89186859,   94.6122513,   4.57987261
   3407,   7.56894159,   80.4045334,   2.32512236
   3408,   5.51553011,   78.9574585,   2.21083641
   3409,  -10.6947994,   81.1118011,   20.0478306
   3410,  -10.1432056,   78.2891922,   22.8083439
   3411,  -7.58211851,   80.4689941,    22.705658
   3412,  -11.2466259,   78.6730423,   20.3709774
   3413,  -22.4812984,   36.0455704,   11.5343122
   3414,  -23.6249962,     34.66399,   9.60534191
   3415,  -25.6639462,   32.7880402,   11.1031342
   3416,  -26.8959026,   35.1882744,   12.2594624
   3417,   -24.125082,   32.6098175,    13.999054
   3418,  -21.5226364,   33.5681419,    13.146328
   3419,  -25.0646152,   37.9072342,   9.06617737
   3420,   -22.929245,   36.7701874,    7.5302887
   3421,   9.27516079,   77.0183716,   4.59660244
   3422,   7.45316505,   75.3021774,   7.29320621
   3423,   9.03262901,   76.4596939,   8.15374088
   3424,  -24.8520412,   30.2141991,   10.2852144
   3425,  -21.9504662,   31.0563183,   10.2634706
   3426,  -20.8802547,   33.8460579,   8.62008572
   3427,   8.30293274,   79.0586014,         12.5
   3428,  -2.49815559,   91.9115601,   6.68511295
   3429,   6.76481056,   89.3147964,   9.86894417
   3430,  -5.05957985,   91.9139709,   18.2494373
   3431,   -6.2336998,   90.0974045,   19.4394188
   3432,   -3.0806489,   92.5330124,    20.785717
   3433,  -3.24514675,    94.296463,   2.29539871
   3434,  -4.21941328,   91.6059952,   2.25178385
   3435,  -2.06133962,   91.1891632,   1.62938261
   3436,   6.97462511,   94.6045151,   7.37001181
   3437,   5.20321274,   96.6969376,   6.71933746
   3438,   6.40081358,     95.10746,   10.0846186
   3439,   4.92896986,   97.3040009,   9.83963108
   3440,   2.62184286,   97.3000488,   7.19507885
   3441,   6.97511625,   92.1890717,   9.31191921
   3442,   7.62014151,   87.4905014,   5.51201534
   3443,   8.56023502,   90.4262695,   5.06950474
   3444,  -1.43274689,    112.62619,   5.32110643
   3445,  -0.94784981,   109.830292,   4.39568663
   3446,  -3.07549691,   108.610107,   6.55923748
   3447,  -3.90590787,   111.678551,   4.32713461
   3448,  -2.24150467,   112.565201,   9.37553024
   3449,  -2.01029396,   115.181496,   6.19501209
   3450,  -4.65116262,   114.183289,   7.29858637
   3451,  -4.48803568,   111.437935,   7.03748083
   3452,   1.66620243,   115.661507,   6.85246611
   3453,   2.58761835,   113.328087,   4.09131432
   3454, 0.0237436518,   113.614166,   8.43130207
   3455,   25.8313236,   45.5868111,   19.3325863
   3456,   23.8770905,   43.2521439,   20.5653362
   3457,   26.3289509,   45.8034668,   22.8294201
   3458,     24.42136,   48.4086037,   17.0899792
   3459,   27.8015842,   46.3145294,   16.5325832
   3460,   27.7461224,   43.6090584,   18.6557121
   3461,   27.1067066,   47.8027267,   18.7516804
   3462,   24.0373383,    47.515976,   20.0003204
   3463,   24.1529541,   51.6262589,   3.78983784
   3464,   22.3988953,   50.3590698,   1.90256882
   3465,   24.5380745,   47.9641457,   4.09817982
   3466,   22.8528862,   54.2380867,   2.29100633
   3467,   26.4134388,   51.6247749,   2.21084213
   3468,   21.5781307,   53.5619926,   4.20629692
   3469,   22.0339146,   51.1007004,    5.1559577
   3470,     25.73419,   50.6418381,    6.2830987
   3471,   26.2127075,    37.547596,   13.6018152
   3472,    21.648407,   34.3674774,   12.4347153
   3473,   21.7702389,   34.5273132,    16.064827
   3474,    23.522049,   38.0974121,   15.0682325
   3475,   22.8429012,   36.8942413,   11.2737436
   3476,    1.4051764,   65.5631409,   6.61395025
   3477,  -1.18480659,   67.5447922,   5.65055895
   3478,   4.89280319,   97.6741714,   13.0844126
   3479,   1.05550444,   100.093437,   14.5331697
   3480,   4.09816456,   100.299133,   13.1374407
   3481,  0.428642333,    65.264801,   4.17297506
   3482,  -0.82944566,    65.906189,   1.84434915
   3483,   -3.7569747,   68.8292999,   4.05822039
   3484,  -2.27048039,   65.1997528,   7.26812029
   3485,  -2.44331145,   64.9239197,   4.16613817
   3486,  -3.45429873,    67.961731,   7.33499289
   3487,  -2.26579094,   66.3290024,   8.83925056
   3488,   22.3254757,   34.9663506,   20.3326187
   3489,  -4.70494413,   83.9240799,   22.6172295
   3490,  -7.33321285,   93.6133499,   17.1377525
   3491,  -6.03064775,   95.1088943,    15.701766
   3492,  -5.76692581,    96.106987,   20.7567482
   3493,  -2.34295082,   94.0449524,    4.4583559
   3494,  -5.97539806,   94.6576385,   9.97711277
   3495,  -7.34138632,   92.9272766,   10.3259678
   3496,  -6.84093046,   94.8471832,    7.8769846
   3497,  0.669631541,   100.180489,   20.0759335
   3498, -0.134522617,   103.052734,   18.3458843
   3499, -0.622658312,   103.888611,   20.9661522
   3500,   3.12031698,   101.913025,   21.9931431
   3501,  -3.36119747,    100.67421,   19.0237293
   3502, -0.177143529,   100.476135,   17.0860481
   3503,   3.19779086,   96.7561722,   20.6441917
   3504,   1.01709878,   99.1680756,   22.9680328
   3505,    0.4767465,   97.4168777,   20.2012596
   3506,  -2.41175413,   98.7845535,   20.7056847
   3507,    4.2940197,   100.512657,    18.063612
   3508,   4.80060434,   100.003433,   20.5179291
   3509,   2.16612697,   98.8585052,    16.717289
   3510,   5.25682306,   96.8767548,   18.4257698
   3511,   1.73290396,   96.0756073,   22.9455395
   3512,  0.757089496,     95.40625,   17.9331894
   3513,   2.30518484,   93.9078827,   20.5804844
   3514,   6.24054241,   95.9766922,   20.7454853
   3515,   3.36755466,   94.3093262,    22.779089
   3516,   4.13029861,   94.3264008,   17.7986908
   3517,  -1.49262869,   86.8951797,   23.1724319
   3518,  0.492750764,   88.7818909,   23.0978146
   3519,   0.16616559,   92.1281357,     21.28619
   3520,  -4.56852531,   93.3627625,   7.16980982
   3521,  -8.30317879,   89.6874008,   12.7604208
   3522,  -5.53175116,   71.1139526,   14.6354208
   3523,   10.7938747,   81.1210785,   5.33547735
   3524,   11.8517551,   83.8225021,   7.46677971
   3525,   8.16073418,   89.4820099,   12.5229273
   3526,   5.90307045,   94.4399261,   12.0331345
   3527,    5.6372242,   94.5657196,   15.1607056
   3528,   9.81204033,    80.146759,   14.7731533
   3529,   29.7409897,   35.0204735,   4.07650948
   3530,   28.6746445,   38.7898598,   4.80701113
   3531,  -1.51034641,   77.4121094,   1.87635195
   3532,  -2.95047855,   76.6431885,   3.79612088
   3533,  -2.13862514,   90.0624466,   3.95179391
   3534,   28.9390392,   36.8303795,   6.67246103
   3535,   28.3951225,   40.3161583,   7.26570988
   3536,   29.1585865,    36.954792,    10.642889
   3537,   5.10310888,   91.6221466,   20.2249641
   3538,  -1.20479763,   95.1216812,   20.5333176
   3539,     8.391716,   90.9843445,   7.62871313
   3540,  0.634858549,   86.3124008,   2.04571605
   3541,  -8.32251263,   75.6529236,   22.8416996
   3542,  -4.74799919,   89.9189224,   3.66205525
   3543,   27.5553741,    35.476738,     2.187567
   3544,   25.1671867,   38.5250931,   1.50848246
   3545,   29.3863029,   34.4600105,   8.56196976
   3546,  0.252778232,   72.0662231,   20.2043552
   3547,  -3.00212979,   72.2304001,   20.1363182
   3548,   11.1968489,   79.1109314,   17.2341309
   3549,   5.54918337,   116.054649,   22.9516163
   3550,   4.80250072,   112.605301,   20.8865871
   3551,   4.66223192,   116.059639,   19.7882099
   3552,  -7.27888298,   87.6979523,   19.5024185
   3553,  -8.93698597,   88.6198578,   17.8106155
   3554,   3.79178762,    71.709053,   18.0167866
   3555,  -1.55898178,   70.0188828,   19.4466381
   3556,  -17.7459278,   31.0338135,    3.2082355
   3557,  -19.3752537,   33.3082581,   1.95549941
   3558,  -18.5687866,   34.4693108,   5.40615988
   3559,  -18.7799835,   31.7329464,   5.10431767
   3560,  -20.1622562,   30.7498493,   1.90376258
   3561, 0.0383199826,   67.7331696,   20.1269379
   3562,    4.1558876,   68.4123688,   17.8167496
   3563,   2.71917081,    65.701561,    17.698061
   3564,   1.46312761,   65.1912231,   20.6777325
   3565,  0.409919292,   65.2773132,   16.6829376
   3566,  -4.11762476,   68.4380951,   17.7408867
   3567,  -4.20477962,   68.5029907,   20.8347816
   3568,  -1.86583292,    65.504776,   18.9256134
   3569,   3.10506654,   69.6713028,   22.7700863
   3570,  -1.16829967,   70.1886368,   22.9971733
   3571,  -2.41839695,   67.3068848,   22.8802204
   3572,   20.2865372,   32.4699593,   9.44516277
   3573,   21.6450272,   34.6406326,    8.1009016
   3574,   4.65116262,   114.183289,   17.7014084
   3575,  -3.97111297,    86.139801,   22.6718216
   3576,  -2.91319823,   88.7535858,   22.7023563
   3577,  0.839749634,   111.393341,   3.94635057
   3578, -0.882244885,   113.021927,   2.14313531
   3579,   3.22856545,   109.599701,   4.04038286
   3580,  -10.2534657,   86.6367264,   5.09398508
   3581,  -8.84842014,   88.6727982,   4.03260899
   3582,  0.893005788,   112.377274,    1.7618376
   3583,  0.921747208,   110.459152,   1.96343303
   3584,  -10.2757635,   86.6921844,   17.7079296
   3585,  -11.4842396,   83.4766998,   20.8630886
   3586,  -11.6795578,    83.877655,   17.6647034
   3587,   9.16337013,   76.8694839,    10.861557
   3588,   8.25320625,   75.6746063,   12.6489735
   3589,   11.7412786,   79.4400253,    12.633769
   3590,   24.5545235,    48.619812,   10.7836885
   3591,   24.4388275,    48.660553,   14.0607643
   3592,   24.5194874,   45.3968315,   14.0188856
   3593,   22.7330875,   51.6516609,   8.41825104
   3594,   22.5598736,   51.6113701,   11.4568272
   3595,   25.8001938,   50.6398926,   9.37499905
   3596,   24.7158566,    45.460289,   7.78981209
   3597,   27.3575077,   49.2147064,   7.27826977
   3598,    4.4662056,   111.539047,   18.0533638
   3599,   3.31619477,   108.995155,   14.6809893
   3600,   4.48803568,   111.437935,   14.8375244
   3601, -0.275339544,   66.0050201,      14.0625
   3602,   3.33430099,   68.3332748,     14.84375
   3603,   2.27711725,   65.2357407,   14.6158867
   3604,  -2.55175996,   66.0493088,    15.525754
   3605,  -25.6576118,   38.0258675,   12.0540514
   3606,  -28.9924278,   38.7692795,   10.4262772
   3607,  -28.1926708,   37.6843681,   13.2548504
   3608,  -27.5338345,   42.0520897,   11.7200975
   3609,  -21.5017529,   38.8144836,   12.4820595
   3610,  -28.7663002,   36.9177094,    8.8043232
   3611,  -25.6367073,   36.5136986,   15.3502665
   3612,  -24.8001156,   39.8679428,   14.2567558
   3613,  -25.3559647,   30.2341843,   13.2816954
   3614,  -21.3520718,   30.2446079,   16.6401119
   3615,  -23.6412067,    32.478157,   17.1177254
   3616,  -25.2612762,   30.3291645,   16.3637905
   3617,  -22.5604801,   36.6273041,   16.4071522
   3618,  -2.05605626,   115.657112,   21.4181767
   3619,   1.79141486,   115.394211,   19.0750561
   3620,   9.67380524,   87.7794342,    7.7773037
   3621,   9.45043087,   88.2793579,   10.2779093
   3622,   4.17206287,   110.822762,   22.7775345
   3623,   1.84041011,   72.8150558,     22.63241
   3624,   7.03048563,   74.2911072,    14.993535
   3625,    28.680048,   41.5494652,   17.8807793
   3626,   27.8404694,    40.002182,   16.3972836
   3627,  -3.08283091,   103.459259,   7.09450102
   3628,  -1.75469995,   97.1147385,   2.29022384
   3629,  -26.4823456,   32.5187263,   19.6460915
   3630,  -28.6354961,   36.6431885,   18.0217323
   3631,  -25.5358734,   36.2602921,   18.3990154
   3632,   -28.298584,   33.6244583,   16.2593327
   3633,  -26.6876831,   35.1857872,   20.3775692
   3634,  -29.7002068,   34.6691513,   20.8213482
   3635,  -28.2139301,   32.9535141,    22.921402
   3636,  -24.9155731,   34.0673027,   22.6414127
   3637,  -22.6310139,   35.2964668,   20.4974461
   3638,  -28.0851479,   30.0978279,   20.8222733
   3639,  -28.2846069,   30.7483082,   16.7111664
   3640,  -24.1795998,   30.8636684,   20.8084393
   3641,  0.638753951,   115.315895,   23.0330086
   3642,  0.331828535,   113.192169,   17.9722118
   3643,   2.64121723,   107.937492,   23.1042576
   3644,  -26.2353363,   41.1635475,   23.1769104
   3645,  -25.7883873,   44.1779633,   23.0268173
   3646,   25.7804317,   36.9807167,   10.7203569
   3647,   21.3448753,   30.2413921,   7.24920273
   3648,   19.8940048,   36.7725296,   6.40891647
   3649,    19.759037,   37.9901848,   4.13752222
   3650,   19.0941124,   35.0877533,   4.24398327
   3651,   22.8761787,   48.7469101,   6.00294399
   3652,   27.9620953,   46.3952026,   10.4134941
   3653,   24.5302372,    45.404808,   11.0218105
   3654,  -29.4506168,   29.8936844,   23.0393143
   3655,   -14.842267,   79.3515396,   1.24403512
   3656,   22.7542324,   51.4638519,   14.4919996
   3657,   27.2481632,   49.0089798,   16.4999352
   3658,   25.8001938,   50.6398926,    15.625001
   3659,   2.89580035,   72.4288177,   20.3216858
   3660,   5.23074293,    71.697319,   20.9062233
   3661,  -6.08774233,    82.279808,   4.38140726
   3662,  -5.30181408,   78.4307175,   2.32539654
   3663,   6.90288591,   74.4447021,   20.8833084
   3664,  -27.1556034,    30.313446,   4.15272093
   3665,   12.9586878,   81.2074432,    10.259655
   3666,   12.9669704,   81.4085083,   7.26469898
   3667,   14.2980537,    79.368576,   7.94460583
   3668,   10.9573555,   78.9274139,   7.27723598
   3669,    11.362237,   78.8039474,   4.61623335
   3670,   13.6833696,   80.0535202,   4.91826391
   3671,  -21.2471581,   39.2436409,   2.77616048
   3672,  -21.1474094,   38.9346809,   6.24999905
   3673,  -19.7899151,   36.7183952,   4.06177902
   3674,  -4.76792192,   70.4430847,   17.8496609
   3675,  -4.16602564,   68.5039291,   14.7135458
   3676,  -2.09189177,   72.8561325,   22.6800804
   3677,  0.330891818,   75.3156204,   23.1997566
   3678,  -3.18151236,    75.657608,   22.7927971
   3679, -0.935141206,   77.4384689,   23.1149712
   3680,  -4.48803568,   111.437935,   10.1624813
   3681,  -4.65116262,   114.183289,   10.4235868
   3682,   25.5945377,   40.1346474,   20.8357868
   3683,   29.0087795,   38.7177391,   20.8183212
   3684,   23.0846786,   38.5182457,   20.7516651
   3685,   24.9801273,   38.1108093,   23.4758053
   3686,   22.6912556,   39.4250336,   23.0228081
   3687,   27.6739845,   38.7471542,   22.9812832
   3688,  -29.7385902,   31.8683662,   8.47113037
   3689,  -2.64927649,   66.0415955,    11.579812
   3690,   -23.511282,   38.4714279,   18.5892391
   3691,  -19.9810696,   38.2908897,   20.3725433
   3692,  -19.8826618,   36.7199516,   18.7500019
   3693,  -24.3750782,   41.2360573,   18.3598671
   3694,  -27.7780857,   39.8424301,    17.989645
   3695,  -25.3387375,   38.4788818,   20.5915642
   3696,  -21.1244774,   38.9657745,   16.5115414
   3697,  -22.3959465,   39.3354836,    23.044157
   3698,  -23.4029655,   41.7545395,   21.9497795
   3699,  -21.8241749,   31.0548382,   13.1662273
   3700,  -2.95255208,   77.7986908,   22.9491482
   3701,   -21.708746,   34.2485123,   17.7774429
   3702,  -19.2248936,   34.3939362,   16.2511997
   3703,  -19.5601654,   37.7045135,   15.3318977
   3704,  -29.4253197,   34.6792564,   12.0489101
   3705,   -9.7370739,   86.1987686,   1.97452521
   3706,  -6.59601736,   72.8886337,    16.902235
   3707,  0.275408089,   93.2320938,   23.2102318
   3708,  -1.61799538,   97.1364365,   22.7088566
   3709,   8.67887878,   78.9712753,   19.3167763
   3710,   19.8268929,   36.8069992,   22.8615417
   3711,   21.4852352,   34.2657776,   23.0024738
   3712,  -30.4340553,   29.8775826,   7.73524237
   3713,   5.75248671,   96.2260284,   22.8968754
   3714,   1.80483747,   91.3804626,   23.2338333
   3715,  -28.6142139,   36.8787689,   6.24999905
   3716,  -1.55508077,   90.9519196,   23.2557201
   3717,  -2.98272705,   94.3435593,   22.7414589
   3718,  -29.2795792,   39.2118988,   23.1110992
   3719,  -29.0772171,   38.8198547,   20.0118465
   3720,  -27.9907341,   37.1364288,   22.9540844
   3721,  -28.5148811,   42.4799004,   20.4612808
   3722,  -21.3488445,   30.2456245,   4.13565445
   3723,  -21.5985851,   30.5658188,   7.16100836
   3724,  -21.5726528,   34.4200745,   2.05178761
   3725,  -22.8853569,   37.2990875,   22.8896332
   3726,  -21.2287502,   33.3009949,   23.0023022
   3727,   -5.5925355,   73.8871689,    22.941576
   3728,  -7.41939163,   77.9682541,   22.7457085
   3729,   2.20938778,   112.509331,   10.9146528
   3730,   4.42230511,   111.697571,   8.51645279
   3731,   4.65116262,   114.183289,    8.3264122
   3732,  -1.48803639,   115.937943,   8.59998131
   3733,  -21.2031212,   38.7699432,   9.47632599
   3734,   1.48804212,   115.937935,   10.1500177
   3735,   4.43873215,   111.893036,   5.65858936
   3736,  0.552975237,   110.788666,   6.89020967
   3737,  0.459885478,   104.064575,   11.3889608
   3738,   3.33504367,   104.417404,   15.5086527
   3739,   2.85107756,   102.597397,   12.9804821
   3740,  -1.89031911,   106.005798,   12.1537666
   3741, -0.0781821311,    103.45237,   15.2140074
   3742,   2.59021139,   102.631119,   8.77779865
   3743, -0.316578209,   101.456215,   9.18198299
   3744,   5.48160219,   98.5101624,   7.87051916
   3745,    4.9473958,   99.8252869,   5.20089722
   3746,  -6.52759075,    92.939888,   2.06008124
   3747,   5.77046728,   96.3178482,   4.05845499
   3748,  -2.18914533,   105.610397,   9.28097916
   3749,  -1.66666508,   106.169998,   14.5833302
   3750,  -3.00502563,   103.357239,     11.71875
   3751,  -7.58474016,   77.1272125,   2.19289017
   3752,  -27.9732723,   30.7156429,   10.5521812
   3753,   -2.7315824,    79.865036,   23.1000423
   3754,   21.4850292,   40.3357506,   1.98101366
   3755,   27.9455414,   47.0395317,     4.285079
   3756,   2.09754062,   107.119164,   6.29241991
   3757,  -1.66308951,   107.537788,   4.12388849
   3758, -0.364511043,   108.041412,   8.20519733
   3759,   2.32736921,   107.578018,   2.59303093
   3760,   3.49326992,   111.919113,   1.84546864
   3761,  -1.80411208,   108.810631,   2.07248712
   3762, -0.768398762,   115.974136,   4.01813555
   3763,   -2.4461503,   114.733353,   2.09958911
   3764,  -24.2801838,   40.4631004,   9.00971127
   3765,  -28.0181561,   39.8542175,   6.32884932
   3766,  -24.2527561,   43.2373734,   12.4602518
   3767,  -25.0129814,   30.2888565,   6.94953156
   3768,  -19.8952904,   36.7622604,   7.26720047
   3769,  -1.74640071,   106.139336,   6.03233099
   3770,   3.56521487,   103.577881,    6.5103569
   3771,  -29.1479397,   38.4422264,   4.84515381
   3772,  -27.6788273,   40.5551834,   2.24157119
   3773,  -20.0922356,   42.2083282,    1.8035903
   3774,  -19.4643917,   40.3903427,   4.49440241
   3775,  -21.3272781,   66.1668167,    10.935998
   3776,   -20.581068,   43.6011963,   4.15699339
   3777,  -22.5251122,   43.9820099,   2.06474757
   3778,  -24.0925827,    46.990284,   4.13752222
   3779,  -20.4929142,   42.2702637,    10.940835
   3780,  -19.9159718,   40.6450424,   7.79150867
   3781,   16.4841957,   29.5517006,   17.2563152
   3782,   18.9014206,   30.3204365,   17.5373554
   3783,  -22.8537655,   48.7509308,   6.61723471
   3784,  -21.1600437,    46.367466,   5.81053305
   3785,  -21.3553448,   49.2543449,   8.28033543
   3786,  -22.6240215,   51.5115738,    7.5201273
   3787,  -8.88605499,   76.4758377,   5.16927719
   3788,  -5.45220947,   88.7606277,   22.7766094
   3789,  -9.04639435,   88.2932816,   21.1001148
   3790,  -6.88685846,   85.5228348,   22.6476955
   3791,  -11.2171879,   83.7686462,   1.97072113
   3792,  -8.08318615,   90.6300201,   20.9224911
   3793,   -21.086483,   46.3200035,   20.8101749
   3794,  -21.5064659,   48.9277153,   18.4409733
   3795,  -21.6587353,   47.7247353,   23.0130749
   3796,   -22.350174,   50.4092789,   23.0080833
   3797,  -20.5907555,   42.3913269,   20.5854874
   3798,  -20.9387207,   43.9840698,   17.0764885
   3799,  -24.4822865,   49.3360367,   21.0975552
   3800,  -25.0069046,    46.506855,   20.9017925
   3801,  -24.5666656,   45.3354607,   18.1745892
   3802,  -25.0948238,   43.3888283,   20.4606628
   3803,  -23.5086155,   56.3035393,   22.8417912
   3804,  -21.6082993,   56.7510223,   19.7918549
   3805,  -24.0412674,   59.9199409,   20.8339024
   3806,  -25.5890083,    55.823822,   19.8967323
   3807,   -22.198864,   54.1987152,   20.5352707
   3808,  -24.7768974,   52.5013733,    22.923811
   3809,   13.5879602,   80.1558762,   20.6792278
   3810,  -21.2931786,    30.274765,   19.7265587
   3811,  -18.6330547,   34.5660133,   20.2443714
   3812,  -20.1936016,   35.9108315,   23.0604248
   3813,   2.13247347,    83.662117,   1.96089125
   3814, 0.0497034565,   82.9615707,   2.76294351
   3815,   14.3899784,   79.2071381,   17.2774258
   3816,   7.06492758,   91.9609146,   12.3040304
   3817,   7.13144636,   92.4002914,   14.9658098
   3818,    7.5502758,   86.8607254,   19.3831921
   3819,   22.1518631,   54.3257103,   8.07178307
   3820,   26.0115967,   53.0833664,   7.99184179
   3821,   26.5399094,    46.862606,   1.96802521
   3822,    24.910078,   43.4457054,   4.43789053
   3823,   22.4391956,   43.9796791,   2.21024823
   3824,   22.1929989,   47.5084038,   1.96382141
   3825,   7.33566332,   74.2699509,   4.59569407
   3826,  -7.55110407,   90.0694733,   2.12125373
   3827,  -5.76620054,   88.2003479,   2.21810174
   3828,   13.1150637,   81.3420792,   16.6784039
   3829,   10.8265572,   85.6029816,   17.6081238
   3830,   28.2550144,   43.3703308,   13.5078459
   3831,   24.5926552,    40.874733,   12.4342413
   3832,    14.420022,   79.5664062,   14.4421244
   3833,   20.9817924,    45.090004,   14.2464294
   3834,   8.59273434,   90.4043732,   20.8353176
   3835,   5.54099274,   88.6895905,   22.6546059
   3836,   6.99149752,   93.2887268,    23.014492
   3837,    4.2015357,    91.463623,   22.6279449
   3838,   7.05861044,   93.4927063,   20.6006126
   3839,   7.42235613,   93.5612259,   17.1175327
   3840,  -5.58692646,   71.2616882,   20.8366432
   3841,   27.7583694,   49.5278816,   20.1706562
   3842,   25.8001938,   50.6398926,   18.7500019
   3843,   24.4096508,   50.2375565,    20.841053
   3844,   26.4253082,   51.5503349,   23.0451527
   3845,   22.7148781,   36.3101311,   22.9316025
   3846,   29.8100548,   35.6919518,   21.1437969
   3847,   27.2556343,   31.1993179,   22.8542652
   3848,   27.6148338,   30.4136581,   19.7563152
   3849,  -10.4972248,   86.3201218,   7.94407463
   3850,    -9.277565,   89.2561569,   7.30369282
   3851,  -9.13814163,   89.0778046,   10.9698391
   3852,   22.4830284,   57.1038322,   1.94311643
   3853,   4.52095795,    100.63018,   10.3645849
   3854,   3.66297674,   100.613136,    6.4373436
   3855,  -21.3272839,   66.1668091,   17.1860046
   3856,   5.37005234,   88.7728424,    2.2506814
   3857,  -12.4485846,   79.4626694,   1.52629733
   3858,  -13.6323519,   80.9123306,    1.8024137
   3859,   8.63754845,    88.367012,   3.07843661
   3860,  -7.66985083,   75.1417007,   7.28337049
   3861,  -7.90780163,   91.5424957,   7.35756016
   3862,     30.01898,   31.9636669,   4.50358105
   3863,   27.8939419,   30.0227871,   2.06446195
   3864,   29.3435211,   32.7039299,   1.74069273
   3865,   28.0891228,    31.096283,   7.57139015
   3866,   30.4083138,   29.5743198,   1.68430662
   3867,  -9.67897415,   78.6049347,   2.02261782
   3868,   23.3621082,   58.0225677,   22.9771938
   3869,   24.2765331,    54.463974,   22.7742329
   3870,   25.0283337,   57.5609131,   19.7914772
   3871,   24.0373726,   60.3589745,   19.7901516
   3872,   21.7162743,     53.86343,   20.0735683
   3873,   21.5990238,   56.7274971,   19.9378128
   3874,  -1.63925445,   81.7985916,   1.98650265
   3875,  -3.21591973,   86.9755859,   2.45786309
   3876,   2.81555057,   102.541885,   17.9139175
   3877,   2.93409181,   104.715477,   20.8471298
   3878,   2.26167274,   106.916817,   18.7500019
   3879,   2.26167274,   106.916817,    15.625001
   3880,  -3.41515636,   103.683281,   17.9895763
   3881,   1.65142047,    77.490593,   1.71253395
   3882, -0.388254702,   79.4517365,   1.84326971
   3883,   2.70807862,   79.8016129,   1.87382746
   3884,  -6.87649775,   74.4689026,   2.10833383
   3885,   26.5513325,   48.9529839,   23.2178631
   3886,  -7.14182425,   74.7317734,    4.6062665
   3887,  -6.19286108,   72.5281601,    4.1528182
   3888,  -2.59711123,   79.9973907,   1.87105155
   3889,   3.27393961,   107.936531,   19.8739777
   3890,  -5.18570614,    97.336998,   22.9054089
   3891,   5.00115442,    97.839241,   15.9028072
   3892,  -1.61602485,   115.937454,   11.6583195
   3893,  0.180433482,   114.098129,   15.0501261
   3894,    4.6688118,   114.803787,   14.6170635
   3895,   1.48349559,   115.726143,   13.1885033
   3896,   -3.0230062,   107.391556,   20.8989239
   3897,  -2.24150467,   112.565201,   15.6255264
   3898,   20.5230026,   43.2522507,   20.8426304
   3899,   21.2805843,   48.8219948,   20.8055382
   3900,   26.1362953,   41.6073914,   23.2724781
   3901,   22.1000004,   42.9251633,   23.0213223
   3902,   20.1198578,   40.0498238,   20.9139004
   3903,   24.0151539,   30.6970615,   20.8232441
   3904,   20.6824055,   32.4526253,   20.8462734
   3905,   6.96964455,   93.3383942,   4.03555632
   3906, -0.889950037,   88.6930618,   1.95735002
   3907,  -13.5454197,   80.1702576,   4.94763947
   3908, -0.445200622,   94.1289444,   1.79563391
   3909,   18.2441044,   30.4024792,   19.8356514
   3910,   1.75844681,    91.344101,   1.74503362
   3911,  -25.0618896,   58.9690399,   1.96258199
   3912,   -23.916256,   60.3547859,   4.06272697
   3913,  -24.5465393,   57.5912628,   4.29283571
   3914,  -22.4619293,   61.8725739,   2.06295419
   3915,  -4.65116262,   114.183289,   13.5485935
   3916,  -1.74401891,   115.936974,   14.7166529
   3917,   1.74401891,   115.936966,   16.5333481
   3918,  -1.66319227,   115.698715,   17.9135303
   3919,   6.64930773,   85.8694763,   22.6202335
   3920,   1.15387177,   105.274628,   1.81529939
   3921,  -22.6605206,   47.0851326,   2.08561826
   3922,  -28.6876431,   40.9656448,   16.0178299
   3923,  -25.9913883,   50.7477913,   6.13305712
   3924,  -24.7337055,   40.7585678,   6.08670664
   3925,  -25.9255886,   49.6149483,   2.10980749
   3926,  -26.4610462,   51.6390762,   1.93913531
   3927,  -5.19924307,   98.7339096,    9.6761961
   3928,   -3.4660306,   100.581383,   9.28918076
   3929,  -6.91928959,   93.4071121,   20.9146538
   3930,  -8.30315018,   90.5984955,   17.1978054
   3931,   21.1065712,   39.5461273,   6.26466656
   3932,   23.2119598,   38.9968414,   3.97960424
   3933,   27.9351578,   38.8310928,    1.8870101
   3934,   19.1206608,   33.7561226,   6.27459955
   3935,   18.9320469,   30.1341305,   8.18161392
   3936,   18.5455914,    31.548893,   11.2826595
   3937,  -18.1442966,   74.2143784,   23.2058563
   3938,  -19.2432728,   71.5338287,   23.5731544
   3939,  -21.0971413,   44.5498466,   8.11527824
   3940,  -3.82562375,   68.9143448,   11.6666479
   3941,  -7.45367336,   93.1777115,   13.5337772
   3942,   -6.0559392,   94.8443146,   13.0885477
   3943,   2.17303824,   106.862801,   9.45184517
   3944,  -27.9882545,   45.4124489,   11.5199356
   3945,  -28.4423428,   43.5113106,   14.5996084
   3946,  -4.95888186,   92.7346649,   4.59623098
   3947,  -28.6007919,   36.3913078,   15.5361147
   3948,  -29.8950691,   31.7294064,   19.9561462
   3949,   -30.349968,   29.8365097,     13.87222
   3950,    3.8846488,   101.103355,   15.1041708
   3951,   10.3917923,   86.1102295,    23.067234
   3952,   29.2428246,   37.5937729,   16.4919605
   3953,   4.33179712,   98.7398758,   23.0338306
   3954,  -24.5112057,   43.0824051,   15.2761049
   3955,  -21.0657768,   39.6786499,   18.7500019
   3956,   21.5322762,    49.328228,   18.3377056
   3957,   22.8002682,   46.1388969,   22.7398949
   3958,   22.5015678,    50.028759,   23.0527248
   3959,  -5.53155708,   78.9624329,   22.7880096
   3960,  -21.3231258,   66.1865921,   23.0215054
   3961,  -22.7162838,   62.2886391,   23.0653362
   3962,  -22.1277523,   63.3125229,   20.3140087
   3963,  -20.3518963,   68.5095596,   23.0895309
   3964,  -4.42400742,   81.5549774,   22.9879322
   3965,   2.05445147,     106.8349,   12.6719055
   3966,  -11.5930824,   83.8741531,   5.07570791
   3967,  -3.19241595,   66.6538696,   2.08874822
   3968,   20.8459778,   31.4527187,   1.94300783
   3969,   4.42352772,   97.3493423,   2.10523796
   3970,  -24.4806423,   44.0656586,   9.44675064
   3971,  -27.9938698,   41.8479271,   8.02584934
   3972,  -21.4317284,   42.1172523,   6.36976242
   3973,  -7.89792585,   82.9371567,   2.31764007
   3974,   12.5517387,   82.1228256,   2.11800957
   3975,   10.1660872,   81.2627335,   1.53618431
   3976,   9.23962212,   88.9689255,   14.5282001
   3977,   5.22611666,   71.6186523,   4.15393209
   3978,   6.08316135,   72.0646133,   7.25341272
   3979,   3.82882237,   67.9066772,   6.17630625
   3980,   5.16380167,   70.2599335,   10.4101534
   3981,  -26.3728752,   47.3209496,   22.9873486
   3982,  -22.3411427,   43.4614029,   23.0001202
   3983,  -21.0341682,   65.8761444,   1.91532886
   3984,  -20.1789856,   68.8901978,   2.03152823
   3985,  -21.5799122,   63.0825806,   4.18289614
   3986,  -21.1126709,   66.3738327,   4.17482567
   3987,  -21.2401562,   46.3854523,   11.4401894
   3988,  -24.3199196,   45.7924118,   7.37293053
   3989,  -27.5860634,   42.8872719,   5.96279621
   3990,  -24.3173733,   50.5886383,   11.1578236
   3991,  -21.4230862,   49.6200218,    13.129467
   3992,  -25.9856949,   48.5658264,   12.4679918
   3993,  -24.2708511,   48.3445778,   9.44223213
   3994,  -24.0918789,   46.5105171,   13.2249212
   3995,  -22.6449451,   48.6277847,    15.625001
   3996,  -21.6331062,   45.7164154,   15.5875654
   3997,  -20.7797966,   44.2820511,   13.4753008
   3998,  -26.2311497,   48.6932945,   18.7500019
   3999,  -20.3249092,   68.5763931,   20.5736637
   4000,  -21.0831814,   66.2490845,   19.8161526
   4001,  -1.86808336,   72.8909073,   2.37784743
   4002,  -4.44708824,   71.7710953,   1.98535466
   4003,   27.8152351,   34.6274223,   10.9496717
   4004,   24.6007423,   40.9281158,   6.58212471
   4005,   24.5727787,   42.0487251,   9.36238766
   4006,   28.3146343,   43.4555817,    7.3046751
   4007,   20.4495277,   41.2973137,   7.56325102
   4008,   21.6155434,   42.8545609,   6.03752279
   4009,   1.96537125,   82.2245026,   22.8323898
   4010,   25.0283222,   57.5609131,   4.16647482
   4011,   24.9108334,   58.7389908,   1.99400783
   4012,   21.6025085,   60.1633224,   2.38977361
   4013,   9.56698418,   78.5505829,    22.838068
   4014,   28.7232056,   40.5072403,   10.3839474
   4015,   28.7232056,   40.5072403,   13.5089426
   4016,  -27.0016155,   47.6484375,   10.1754808
   4017,   -23.416256,   42.6934662,   4.09533548
   4018,    30.085886,   30.0094681,   4.71858788
   4019,   7.58999538,    80.264801,   22.7522087
   4020,  -18.2529106,   33.5311584,   23.4621544
   4021,  -17.8577747,   31.9574184,   20.7201366
   4022,  -19.7972889,   36.7969742,   11.9179411
   4023,  -18.5389709,   34.2961426,   8.26048183
   4024,   12.3236237,   83.3778839,   23.3037453
   4025,   19.1227055,   71.7517471,   23.5731544
   4026,   20.3799706,   68.2759323,   20.1494541
   4027,   21.0548344,   65.9700165,   19.9214993
   4028, -0.418863833,   101.651726,    22.775856
   4029,  -3.11086965,   100.595276,   23.0062656
   4030,  -2.59895039,   104.697044,    22.942934
   4031,  0.346233517,   106.278839,   22.9752407
   4032,   1.71312988,   103.897484,   23.0109158
   4033,   22.5225983,   52.0880661,    22.030714
   4034,   5.55230188,   114.757446,   5.28528261
   4035,   4.96999121,   115.943153,   4.12725258
   4036,  -5.46716309,   98.4501877,    20.375124
   4037,  -27.8399086,   46.4704208,   14.6217241
   4038,   19.4009686,   34.3763847,    2.0324192
   4039,  -19.2581635,    71.527298,   1.68567169
   4040,   28.5438919,     36.91045,    13.003706
   4041,   21.0052795,   38.9155998,   14.6187887
   4042,   -3.1177237,   89.2206879,   1.68846476
   4043,  -8.23653984,   90.6595078,   23.0746021
   4044,  -12.5387735,   81.8549652,   22.5940399
   4045,  -10.2908602,   80.9763336,   23.4932938
   4046,  -13.5752459,   80.2481308,   20.3053951
   4047,   -7.8012948,   91.2585831,   4.27042818
   4048,  -4.48803568,   111.437935,   13.2874756
   4049,   4.48803568,   111.437935,   11.7125187
   4050,  -6.80519819,     85.61026,    2.4055264
   4051,  -7.09149837,   93.5485001,   4.21876001
   4052,  -4.19727468,   70.8299866,   22.9942036
   4053,  -9.12158394,   86.1499786,   23.0710831
   4054,  -26.3042889,   47.3054352,   1.94431579
   4055,  -27.7321053,   47.7478561,   4.37363911
   4056,  -21.4482002,   61.8110886,   14.5184221
   4057,  -21.3272781,   66.1668167,   14.0610037
   4058,  -21.9430008,   63.9445152,   12.7604208
   4059,   -21.560955,   61.8104362,   11.3285017
   4060,  -22.2167416,   64.0004425,   9.18289661
   4061,  -4.51034594,   116.153725,   5.09612703
   4062,  -10.2521973,    83.710022,   23.1185017
   4063,  -14.6903238,   80.1817093,   23.5629196
   4064,   18.2956238,   74.1838074,   1.78505003
   4065,   4.84006119,   70.9669266,    15.625001
   4066,  -30.2621441,    29.864006,   4.31328917
   4067,  -4.23432064,    91.541626,   22.7660313
   4068,    10.313427,   78.6113358,   2.03292179
   4069,  -5.44195127,    94.564064,   23.1008759
   4070,  -20.8780041,    30.377594,   22.6984158
   4071,   -26.686409,   49.5838394,   21.5881233
   4072,   -28.001791,    47.384964,   20.5845623
   4073,  -26.9251938,   52.1472168,   20.7967987
   4074,  -23.5586491,    51.961071,   20.1175709
   4075,   26.2589035,   53.1310081,   17.4046383
   4076,   21.8782597,    53.903183,   14.0200167
   4077,   21.9153976,   57.3246956,   17.4467907
   4078,   25.4198952,   55.9002495,   17.4916725
   4079,   21.7338657,   57.8381119,   14.3873835
   4080,   21.3704071,   62.8787231,   16.7315788
   4081,   20.4968548,    68.121727,   17.4051743
   4082,   21.4157696,   41.9634972,   11.5395842
   4083,   22.6741314,   62.9046593,   13.5411911
   4084,  -26.6444168,   50.7797813,   10.0271416
   4085,   30.7261143,   30.1089134,   7.25729084
   4086,   16.8768196,   29.3490086,   7.43914652
   4087,  -20.4287834,   68.3935547,   17.4395714
   4088,   17.7851772,    31.812048,   5.73921633
   4089,   2.75353265,   65.5055618,   8.09664059
   4090,   3.80158901,     70.54319,   2.08012366
   4091,   24.0373726,   60.3589745,   4.16514969
   4092,  -25.7011929,   43.3016701,   2.15723753
   4093,   21.6085739,   60.5014191,   5.20682049
   4094,   18.6389561,   34.0768242,   17.8101139
   4095,  -20.3969574,   68.6232605,   4.64277029
   4096,  -22.1184826,   61.9714165,   7.75834084
   4097,  -21.0094261,   65.9372253,    7.3565836
   4098,   -1.1584698,   81.8390427,   23.1739521
   4099,  -3.51204991,   109.600151,   23.2203312
   4100,  -26.6641903,   51.1152725,   16.5876884
   4101,   6.06238222,   94.4970016,   1.95303762
   4102,  -25.1053162,   30.3528328,   23.2682514
   4103,   7.14425182,   90.4939423,   1.82560897
   4104,  -20.1178589,   41.1410828,   16.7937908
   4105,  -21.0954323,   41.6193123,    14.546032
   4106,   1.13771904,   67.2341232,   1.98733091
   4107,   3.13202596,   66.5147705,   3.93751454
   4108,   5.81725788,      73.3237,   2.01037192
   4109,   5.06460047,   76.4955597,   2.05345559
   4110,   21.5138512,   44.7177086,   11.3922157
   4111,  -4.80338621,   116.043144,   20.6801758
   4112,   21.1823196,    39.152668,   11.5742264
   4113,   28.3561802,    43.421032,   10.3839474
   4114,    20.993763,   39.1634636,   8.51821709
   4115,   18.6207581,   30.2950249,   4.22081041
   4116,   20.5298233,    41.174221,   4.15480042
   4117,   22.0628624,   30.2981148,    19.292696
   4118,   2.37483358,    115.36657,   1.84792471
   4119,   20.8519764,   65.2676315,   1.98971832
   4120,   21.4173107,   65.9180908,   4.68384314
   4121,   20.2894058,   68.3295135,   4.17477989
   4122,   22.5441551,   63.8528595,   1.80666316
   4123,   28.3767891,   43.4426041,   16.6387863
   4124,   20.6988564,   44.2082977,   4.23022938
   4125,   25.8137302,   41.0636864,   2.17972469
   4126,   4.65116262,   114.183289,   11.4514122
   4127,    -4.906991,    112.58268,   23.1051826
   4128,  -3.54752564,   111.819695,   1.82206202
   4129,   21.2076912,   46.1447449,   5.46874905
   4130,  -5.55794525,    114.43029,   3.58317614
   4131,   9.71199322,   86.1432648,   2.06568432
   4132,  -5.03876066,   114.320541,   16.8255482
   4133,   -2.3294425,   112.628548,   22.8129578
   4134,   21.3704071,   62.8787308,   4.23158312
   4135,   21.8558922,    57.590065,   5.21785545
   4136,   29.6282978,   30.3826771,   11.3958206
   4137,  -21.9474792,      54.0625,   16.6674252
   4138,  -22.6158257,   51.5522766,   17.6058388
   4139,    -25.35536,   53.5713043,   17.7098503
   4140,  -18.5055466,   34.6762047,   12.5292444
   4141,  -4.48803568,   111.437935,   16.4124756
   4142,  -2.65454841,    105.99649,   1.92054367
   4143,  -1.70062697,   83.8861084,   1.94933641
   4144,  -22.6079388,   30.4982777,   2.04821777
   4145,   7.62503099,   90.0373611,   23.1385727
   4146,  -27.8740482,   42.9717026,   17.9046535
   4147,  -18.9822083,   30.8017578,   13.6703901
   4148,  -27.6836643,   46.0341988,   18.2942619
   4149,   1.17605615,   67.6294174,   23.0171986
   4150,   14.4779959,   79.0878677,   23.8805485
   4151,   9.34447765,   87.8880005,   21.0476227
   4152,   14.4350786,   80.2142715,   23.3049202
   4153,   16.7115555,   77.0655899,   23.3900604
   4154,  -18.5315857,   31.8368092,    17.707325
   4155,  -24.3577881,   40.8300056,   1.81848073
   4156,   -27.637228,   47.9707222,   7.49843979
   4157,   21.6085739,   60.5014191,   17.7068233
   4158,    22.713747,   51.6677094,   17.6572781
   4159,   26.3560143,   53.0989265,   11.3279362
   4160,   24.7821465,   56.4787102,   10.4151506
   4161,   24.0486813,   59.8066711,   7.29090977
   4162,   25.1725101,   56.1796112,   7.74654579
   4163,  -25.3811245,   54.5771675,   4.16515541
   4164,   24.5923004,   58.7494354,   17.5128746
   4165,   29.1302795,   29.5936928,    23.586132
   4166,   7.21324968,   76.5856705,   1.96115971
   4167,  -25.4821186,   53.3508377,   8.13156223
   4168,  -27.6208878,   44.8485413,   8.15667057
   4169,   27.9711189,   46.3841743,     13.53757
   4170,  -22.6377869,   51.6496887,   13.5582914
   4171,  -27.0396328,   50.3291779,    13.534234
   4172,   21.6349506,    30.195076,   10.2927141
   4173,   30.4406071,    29.986084,   13.9356203
   4174,   -22.304657,   52.5757484,   10.4181776
   4175,  -25.4013958,   53.5208626,   11.6201372
   4176,  -25.9692326,   53.3742828,   14.0851984
   4177,  -17.8595848,   31.4949627,   11.4027367
   4178,   21.0295086,   65.8580246,   13.5416937
   4179,   26.1182575,   54.2373581,   20.1334038
   4180,   11.8130522,   78.8203278,   23.1825752
   4181,   26.3560143,   53.0989265,   14.4529428
   4182,   27.4885578,   45.8630753,   7.00748253
   4183,   30.0898151,   29.7436428,   20.5792618
   4184,   20.4075127,   68.1257095,   13.9485168
   4185,   21.0094261,   65.9372177,   16.7315788
   4186,   24.2307262,    59.388031,   13.8609905
   4187,    21.947485,   54.0624962,   10.9367456
   4188,   30.4903908,   29.5860519,   17.3225479
   4189,   21.0548344,   65.9700165,   10.5464973
   4190,   21.1456509,   66.0356216,   7.55133057
   4191,   20.3713913,   68.2087936,   10.9394817
   4192,   21.3163052,   62.8477364,   7.32412386
   4193,   21.6697235,   56.8657532,   10.6767025
   4194,   25.1384678,   56.1088753,   13.8275194
   4195,  -30.2253151,   29.3286572,   11.0766258
   4196,  -30.1707287,   29.1711235,   17.2417164
   4197,   -30.750246,   29.6871891,   20.3120899
   4198,   20.5650425,   68.1203461,   8.24989796
   4199,   22.0165405,   57.3843918,   8.27725697
   4200,   22.3562279,   54.5889206,   17.7068233
   4201,   15.2979031,   78.8348923,    1.2217195
   4202,    -12.46311,   79.4922791,   23.4678993
   4203,   12.8966589,   79.3623581,    1.5938499
   4204,  -18.5315857,   31.8368092,   8.33232975
   4205,   -18.961132,   29.9581184,   10.9260416
   4206,   20.5530815,   68.5082397,   2.21715927
   4207,  -14.5632553,   79.2527618,   23.6000805
   4208,   -20.315691,   68.4181976,   8.01597404
   4209,  -28.1726513,   44.6582909,   4.18943596
   4210,  -20.3799763,   68.2759476,   11.3604021
   4211,   1.28021526,   64.7948456,   23.3889294
   4212,  -21.6531487,   60.2865257,   5.20299339
   4213,  -24.1992531,   59.7362175,   8.07305717
   4214,  -21.5418434,   58.1273384,   8.00790882
   4215,  -21.6906624,   58.4892159,   10.4181776
   4216,  -24.1973915,   59.7645378,   11.1980114
   4217,  -18.3298473,   29.6938267,   19.6771736
   4218,  -21.8135109,   57.5436058,   13.7378225
   4219,  -24.0783882,   59.3535995,   14.5848494
   4220,  -21.6085739,   60.5014191,   16.6681786
   4221,  -24.0486927,   59.8066711,    17.709095
   4222,  -21.6082993,   56.7510223,   16.6668549
   4223,  -24.7821465,   56.4787178,   14.5848494
   4224,  -25.0052128,   56.3077965,   17.4490528
   4225,  -24.7821465,   56.4787178,   11.4598484
   4226,  -21.8062744,   55.5845261,    9.3757534
   4227,  -24.7821465,   56.4787178,    8.3348484
   4228,    -20.30196,   68.2802963,    14.436801
   4229,  -21.6409264,   53.6676788,    13.541853
   4230,   3.83772135,   66.2898102,   1.88060153
   4231,  -22.1277523,   63.3125305,   17.1890087
   4232,   6.00000143,   136.684296,   2.58972049
   4233,   7.11834335,   138.840195,    4.5260849
   4234,   7.94012022,   136.377151,   5.41029167
   4235,   7.06963253,   139.252472,   6.99058533
   4236,    5.2017498,    122.78196,   7.33599281
   4237,    6.5248971,   120.302116,   8.25368595
   4238,   4.48927832,   139.787399,   7.22682238
   4239,   5.00286531,   137.566406,   5.17203999
   4240,   5.47467995,   140.687439,   3.60210967
   4241,  -5.03856516,   134.033615,   21.2701797
   4242,  -7.37997723,   133.532761,   23.2583961
   4243, -0.840940893,   122.988091,   4.35383511
   4244,  -4.54587698,   123.139191,   2.85318112
   4245,  -3.85962152,   125.518967,   2.64801979
   4246,  -2.00055194,    122.31929,   2.08218336
   4247,  0.893115819,   125.296066,   2.55363965
   4248,  0.999448597,    122.31929,   2.08218336
   4249,   0.36163643,   123.700989,   6.83229589
   4250,  -1.70334983,   126.498047,    5.2603097
   4251,  -3.01228118,   124.521355,   6.18197584
   4252,   4.98176622,   120.743958,   11.5502043
   4253,   2.08608532,   120.474213,   7.34983063
   4254,   6.95504522,   121.949814,   5.11444283
   4255,   4.49049854,   122.944328,    9.8908205
   4256,   6.98284864,   122.493118,   10.8153067
   4257,  -5.01425552,   124.284706,   15.5417433
   4258,  -6.93199492,   123.433731,   14.6247473
   4259,  -4.46944904,   123.477455,   11.7181349
   4260,  -4.89694595,   120.262016,   13.6311092
   4261,   -4.4890337,   121.824547,    17.175705
   4262,  -4.03098965,   126.205162,   18.3752975
   4263, -0.970664322,   124.018959,   17.0850658
   4264, -0.248024672,    140.38533,   19.0838375
   4265,   1.94982433,   140.201447,   16.6127968
   4266,   1.95676994,   138.210739,   19.0301781
   4267,  -4.09120083,   141.067398,   19.9503918
   4268,  -3.04173779,   143.249985,   17.8582878
   4269,  -2.07348919,   140.469589,   17.0703793
   4270,   5.57907581,   132.446869,   2.13688231
   4271,   1.70168269,   140.118011,   21.0631084
   4272,  -1.00286639,   139.094742,   22.0272446
   4273,  -2.03341746,    123.39962,   14.1084185
   4274,  -2.00116038,   123.174988,   19.9473877
   4275,  -4.10737276,   127.729378,   20.3787384
   4276,  -4.91120434,   125.188828,   21.9016075
   4277,  -7.00132275,   127.293945,   20.8588009
   4278,  -5.97735929,   124.090958,   19.4415131
   4279,  -1.93429804,   126.314171,   19.0620899
   4280,   -6.9120841,   123.106934,   17.1602917
   4281,   3.90100741,    122.63166,    2.1991899
   4282,   2.10771298,   120.193153,   4.17067051
   4283,   1.53121531,    120.28167,   2.12237573
   4284,   4.99305391,   120.297287,   2.22539186
   4285,    6.7594738,   123.659248,   2.82807374
   4286,   3.50589895,   122.925522,   5.08446693
   4287,   1.97551715,   123.357658,   19.9690189
   4288, -0.905671358,   125.224464,   21.9627895
   4289,   2.78381085,   125.844902,   22.0995407
   4290,   1.99423254,   126.230949,   18.4873047
   4291,   1.00055182,   120.245216,   20.8344841
   4292,   4.06903791,   121.381401,   19.3196468
   4293,   2.00219965,   122.317329,   22.7710419
   4294,   7.28503275,   121.378937,   21.2467823
   4295,   5.09809542,   120.409248,   16.8220959
   4296,   4.49946976,   124.175247,   17.2722607
   4297,   6.94341373,   123.965614,   17.8493977
   4298,   4.71728611,   141.910782,   22.7381363
   4299,   1.54807198,   144.003189,   22.9515438
   4300,  0.924821258,   141.999176,   22.8122501
   4301,   5.09191608,   139.087997,   22.0576611
   4302,   7.14369917,   144.148071,   21.7994556
   4303,   4.41521883,    143.30719,   20.4416199
   4304,   4.68286324,   144.110687,    22.893652
   4305,    2.2652328,   142.122986,   18.7867508
   4306,   1.95049477,   144.017426,   20.7933292
   4307,   4.54184198,   140.054779,   17.7393074
   4308,   4.49856853,   137.027893,   19.7487049
   4309,    1.0028646,   137.023636,   22.0272408
   4310,   4.69902086,   143.523788,   5.45671129
   4311,   2.97243667,    139.05777,   4.82212353
   4312,    1.9793483,   139.686829,   7.38371277
   4313,   6.81635809,   143.932571,   3.29609609
   4314,   4.00055075,   144.094788,   2.08275819
   4315,  -1.74392521,   140.426956,   14.6595135
   4316,  -4.17177343,   143.851852,   14.7235346
   4317,  -4.63307047,   140.006927,   15.1817102
   4318,  -4.52276468,   140.752502,    16.824852
   4319,   1.00055182,   144.094788,   4.16551638
   4320,   2.50341749,   143.184525,   9.24877357
   4321,   6.00000143,   143.473251,   9.66708088
   4322,  -6.94829845,   144.139923,    17.613409
   4323,   -6.9491868,   141.419647,   16.9761429
   4324,  -7.02208853,   142.648758,   20.3743782
   4325,  -4.00055265,   144.094788,   20.8344841
   4326,   -6.7241025,   139.432709,   18.3692455
   4327,   7.26405096,   119.544258,   22.9350109
   4328,  -7.00815821,   140.956421,   22.7129765
   4329,  -7.38349962,   137.339355,   23.0573082
   4330,  -7.03661442,   144.259155,    22.867485
   4331,  -5.00055265,   142.020706,   22.9178162
   4332,   4.58733892,   126.616135,   5.26890659
   4333,   2.18356419,   125.587997,   7.09158993
   4334,   1.87188745,   136.626907,   5.31535101
   4335,   1.72012484,   136.411011,   2.21843386
   4336, -0.380000621,   140.982956,   4.97201157
   4337,   1.95059419,   141.936005,   2.17852879
   4338,  -1.35846889,   138.528229,   2.58802867
   4339,  -7.05295134,   121.208679,   11.9910631
   4340,  -5.04458666,   120.499771,   10.9845448
   4341,  -7.04458523,   122.778748,   9.50213623
   4342,  -4.54311514,   123.168015,   9.09122658
   4343,  -2.06371999,   124.547729,    8.6155386
   4344,  -5.25307512,   125.521912,   6.59620762
   4345,  -2.91215086,   120.925842,   9.54781246
   4346,  -5.02194643,    120.23336,   8.16979694
   4347, -0.999065518,   120.645905,   7.20407581
   4348,  -7.72550917,   125.246025,   16.0770493
   4349,    6.6955452,   123.210014,   22.8828049
   4350,   4.00055075,   120.245216,   22.9172421
   4351,  -7.29693413,   120.235504,   2.12845922
   4352,   7.29852676,   132.022156,   23.5637169
   4353,   4.71859121,   133.443222,   21.0421619
   4354,    6.9588089,   134.380417,    22.493639
   4355,   7.34183168,   133.775467,   20.5476665
   4356,   4.84971571,   136.067947,   22.6840954
   4357,   6.89292908,   125.261429,   16.0105877
   4358,   2.44403625,   122.111252,   11.4868555
   4359,   4.27661276,   123.899635,   11.6933098
   4360,   2.22796535,   123.459267,   9.23588562
   4361,   7.05060482,   124.698959,   6.45596457
   4362,    6.9882865,   140.610947,    17.833147
   4363,   4.99957371,   143.848404,   14.7337046
   4364,   7.04550743,   142.302185,   19.9788876
   4365,   3.87310815,     138.8479,   2.41393423
   4366,   1.91446173,   140.743591,   10.8886824
   4367,   5.00341892,   140.785706,    10.996274
   4368,   6.79304171,   141.136932,   9.07476234
   4369,  -6.86494112,    120.48391,   4.29953527
   4370,  0.995312512,   143.907028,   7.28457165
   4371,   -6.9078064,   140.416977,   2.75802755
   4372,  -7.03903913,   137.230194,   2.42857718
   4373,  -4.51109791,   138.768158,   2.77978826
   4374,  -6.61306047,   138.127594,    4.7317729
   4375,  -4.56097031,   141.639557,   2.16296697
   4376,  -6.99454403,   144.217468,   2.77078009
   4377,  -6.81435919,    142.27179,   4.30824375
   4378,   6.99411106,   142.498398,   4.71761417
   4379,   2.99999881,   121.104683,   15.7862883
   4380,   3.99658132,   123.309631,   14.0492496
   4381,    5.1453023,   120.491486,   13.9311752
   4382,   6.74882507,   122.943527,    14.191761
   4383,   4.03760529,   126.890541,   19.2961636
   4384,   2.00341654,   124.029366,   16.9851322
   4385, -0.0282113869,   123.565002,   10.8843174
   4386,  0.865227222,   120.846336,   9.67826843
   4387,  -1.00055182,   120.245216,   4.16551638
   4388,  -7.10431767,   142.486755,   9.96470356
   4389,  -6.37071848,   143.949356,   7.91100597
   4390,  -6.92767477,   140.006729,   6.40533638
   4391,  -4.90906334,   140.787521,   8.79501247
   4392,   -4.2397213,   140.385406,   11.9183302
   4393,  -4.98630667,   143.495651,   11.7699537
   4394,  -3.53719473,   143.081421,   9.42689419
   4395,  -4.83156109,   135.767731,   2.16911101
   4396,   6.91906166,   137.842697,   20.6565132
   4397,  -6.89392948,   135.396942,   4.92174292
   4398,  -3.75307584,   120.627327,    4.2852273
   4399,  -4.22882414,   143.249908,   5.50782919
   4400,  -2.13216257,   143.290314,   6.87650871
   4401,  -3.82216239,   139.137283,   6.86894798
   4402, -0.999448597,   142.020706,   2.08218336
   4403,  -2.04214716,   144.082031,   4.18819046
   4404,  -4.38719368,   144.068604,    2.1925211
   4405,  -7.04279041,   123.943489,   3.60951447
   4406,  -7.04389191,    121.91481,   6.66691685
   4407,  -2.00071692,   134.918594,   20.4695625
   4408,  -1.39022231,   134.018005,   22.7632198
   4409,  -1.00341797,    120.86673,   11.7468538
   4410,   1.87457275,   124.070641,   14.8712673
   4411,   6.19516468,   125.087112,   19.9809303
   4412,  -2.04858732,   138.174759,   18.9948235
   4413,  -4.68734503,    137.74939,   18.4233456
   4414,  -1.00055182,   144.094788,   20.8344841
   4415,  -2.00055194,   142.020706,   22.9178162
   4416,  -5.01475573,   138.947876,   22.7164383
   4417,  -6.96603489,   120.103416,   16.9298801
   4418,   -4.6963253,   130.984741,    21.354044
   4419,  -4.59824133,   120.962952,   20.4296131
   4420,  -1.92109513,   120.708282,   17.7293186
   4421,  -7.06255913,   121.745941,   19.7768631
   4422,   1.55956149,   130.424179,   20.3906174
   4423, -0.140877798,   131.297623,   21.8292503
   4424,   1.89043963,   130.124985,   22.8216782
   4425,   1.92643368,   134.537781,   20.4735069
   4426,   4.38866043,   129.926407,   22.4610538
   4427,  0.020801153,   127.736801,   20.5134144
   4428,   5.74359083,   129.295441,     20.65345
   4429,   6.90738058,   140.253647,   14.9764757
   4430,    3.9854393,   140.666367,   14.4021673
   4431,   6.99185896,   142.657898,   12.8686285
   4432,  -1.53801894,   136.587692,   5.31857395
   4433,  -1.08497846,   139.696304,   7.39768505
   4434,   6.88104916,   131.421631,   3.93254089
   4435,   4.05128384,   131.619888,    4.1825819
   4436,   4.30791378,   129.327866,   4.48621702
   4437,  -1.16945481,   120.712936,   14.9247675
   4438,   1.00341797,   121.104683,   17.8660622
   4439,   1.06111777,   120.306816,   14.5267963
   4440, -0.447685957,   142.959152,   9.28877354
   4441,   -1.1658082,   140.741959,   11.0042963
   4442,  -1.12196755,   143.892197,   11.5069418
   4443,   6.40625143,   126.163864,   22.7666149
   4444,  -4.39867067,   144.284454,   23.0806751
   4445,  -7.13468933,   132.954041,   20.8440685
   4446,   3.95815015,   125.656998,   2.69833422
   4447,   7.01826811,   120.060135,   3.03580666
   4448,   6.81740427,   127.015068,    3.6970787
   4449,  -1.85082912,   131.658173,    2.2602756
   4450,   2.00543475,   132.693329,   2.26586246
   4451,   1.16175365,   131.569321,    4.1987257
   4452,   1.90777516,   129.887314,   2.47004652
   4453,  -1.71675849,   129.288284,   4.28201914
   4454, -0.609707236,   127.445587,   2.05104566
   4455,  -1.16524422,   135.639984,   2.17620182
   4456, -0.532022119,    133.27182,    3.8352623
   4457,  -4.10597515,   132.089508,   4.24924231
   4458,  -4.99713326,    132.69754,   2.11755848
   4459,  -5.67945433,   130.799362,    3.2223928
   4460,  -4.53128529,   120.291664,   2.11342072
   4461,  -1.29401338,   144.116394,   2.04755497
   4462,  0.986770689,   143.813507,   16.8886604
   4463,   4.00341702,   143.473251,   11.7468538
   4464,   1.00341797,   143.473251,   11.7468538
   4465,  -4.74849463,   122.487961,   22.7320786
   4466,  -4.81243086,   120.199318,   22.8743973
   4467,  -7.06617022,    120.24437,   22.9460697
   4468, -0.999448597,    122.31929,   22.9178162
   4469,  -1.99944878,   120.245216,   20.8344841
   4470,  -1.00341797,   143.595795,   14.8357811
   4471,   1.49848115,   142.312103,   14.4422159
   4472,  -6.93392324,   130.057663,   22.3985863
   4473,   -7.5535059,   130.748993,   20.6518574
   4474,  -4.90716934,   128.219666,    22.641552
   4475,  -6.75762749,   141.503418,   13.5665274
   4476,  -5.38682652,   136.641693,    20.256876
   4477,   -4.4428606,   136.035843,   22.6060581
   4478,   -1.4687835,   144.058319,   22.8776226
   4479,  -2.06310272,   123.955872,   11.8541145
   4480,  -3.89604473,   134.955353,    4.3142066
   4481,   1.06256866,   120.179329,   22.8564873
   4482,   6.88328075,   128.765945,   5.24413633
   4483,  -6.92319059,   128.829056,   4.94803715
   4484,  -5.99999952,   127.655716,   2.58972049
   4485,  -5.00179434,   127.851608,   5.30903339
   4486,   1.29692566,   144.104507,   2.12846637
   4487,  -1.56243122,   120.239304,   22.9102116
   4488,  -1.53128457,   120.291664,   2.11342239
   4489,  -1.00071681,     128.4245,   22.7553024
   4490,   5.02233267,   128.638474,   2.17451334
   4491,   1.89481342,   134.661316,   22.7674313
   4492,  -1.97527242,   129.534668,   20.5779667
   4493,   1.99731159,   127.793182,    5.0677681
   4494,   1.13825655,   140.041138,    14.670496
   4495,   3.99928427,   135.386703,   4.70796204
   4496,  -7.58201361,   139.656876,   15.1585999
   4497,   18.5279541,    25.921423,   4.73432684
   4498,   16.5828934,   26.0292492,   6.64110374
   4499,   19.0474358,   24.9858437,   6.88593388
   4500,   21.3005505,   25.9247799,   4.16551638
   4501,   29.0763626,   6.43654251,   4.65240479
   4502,   30.2731152,   3.73229122,   4.69518995
   4503,   25.4703846,   8.31597137,   5.13100147
   4504,   28.0768433,   5.26140308,   6.78284883
   4505,   24.7163906,   5.45655918,   4.88427496
   4506,   26.9150867,   6.92667103,   7.86815882
   4507,   27.3003578,   7.27867842,   2.27198505
   4508,   30.8342495,   10.7908611,   4.43929911
   4509,   28.4757824,   8.96729279,   5.12173605
   4510,   27.8123455,   4.71938467,   2.42069173
   4511,   30.3946285,   7.38670683,   1.97715604
   4512,   27.5725651,   4.88761902,   20.4932156
   4513,   26.8391724,   5.63142347,   18.0506191
   4514,   25.3000431,   8.07876396,   18.4271622
   4515,   28.3288345,   8.18361568,   18.3246822
   4516,   27.5441837,    2.1634376,   17.5309696
   4517,   25.2965794,   2.93468189,   17.8660583
   4518,   29.0446186,   2.01661992,    7.9249897
   4519,   30.3184128,   7.85102415,   20.6952858
   4520,   30.0265045,   6.30734921,   18.1082706
   4521,   30.3227444,   5.63788843,   22.2830658
   4522,   30.2426682,   2.67176056,   19.7700253
   4523,   28.2989235,   7.19026327,   22.4935913
   4524,   28.3005524,   4.14929342,   22.9178162
   4525,   27.1071491,   23.4331532,   22.7258244
   4526,   29.9349289,   23.3043633,   22.6353264
   4527,   25.7940273,    25.546669,   20.4958191
   4528,   24.9325352,   25.9257412,   23.4213428
   4529,   28.2335434,   25.9128571,    21.984684
   4530,   16.8019009,   5.55272198,   10.0786648
   4531,   16.5786743,   4.58029127,   13.6388559
   4532,   19.3412151,   5.68053532,   10.9589872
   4533,   16.3813896,   3.18432951,   9.78833294
   4534,   16.2549076,   3.74359107,   6.66870117
   4535,   21.8379402,   21.9537392,   13.1874599
   4536,    20.194582,   4.02124405,   5.08624029
   4537,   19.6295204,   3.90595627,   7.77883148
   4538,     21.41889,   6.56201982,   7.19273663
   4539,   18.7304993,   6.68567562,    6.9633193
   4540,   18.4730759,   2.09606791,   4.84674692
   4541,   22.0993652,   2.12894225,   4.07948971
   4542,   22.1870575,   2.48358893,   7.04770327
   4543,   18.8639412,    4.9348278,   2.83147907
   4544,   21.7117863,   6.38229418,   3.57336259
   4545,    21.299448,   4.14929342,   2.08218336
   4546,   17.5782986,   12.2339716,     3.067168
   4547,    16.307188,   23.1055069,   7.68588448
   4548,   16.2570152,   24.1590004,   4.86555624
   4549,   16.8377419,     24.83778,   10.3408871
   4550,   17.2016354,   18.1116905,   20.3994865
   4551,   21.5365162,   19.0673199,   19.2759476
   4552,   18.7488556,   19.8443375,   18.7281895
   4553,    19.300539,   19.7240276,   22.4944324
   4554,   18.5857258,   16.5465736,    22.271246
   4555,   16.5205822,   19.8900566,    22.845129
   4556,   16.1390743,   16.2676697,   22.7861061
   4557,    16.282196,   14.7584438,   20.9710293
   4558,   25.2329521,   5.77976131,   11.2765274
   4559,   22.3540001,   5.13546276,   11.9330797
   4560,   25.8833618,   3.16362047,   9.26962566
   4561,   27.2584019,   5.53531218,   10.1800966
   4562,   25.2618923,   2.71039367,   11.7414942
   4563,   23.5437527,   2.54222512,   8.84396172
   4564,   23.3817749,   5.49010944,   8.86629868
   4565,   24.7227077,   20.5869675,   4.66637039
   4566,   25.2844334,   17.5061054,     4.210217
   4567,   22.5015297,   23.6514473,   2.18120003
   4568,   25.0915661,   23.4216995,   5.52506542
   4569,   21.7258663,   22.6385899,   4.75114107
   4570,   21.3117161,   20.6480045,   7.31660032
   4571,   21.3680382,   19.4034405,   5.11621141
   4572,   21.3471031,   21.0415878,   2.37631202
   4573,   24.4777832,   18.9356403,   2.21405125
   4574,   28.2580338,   19.5471325,   5.16306686
   4575,   25.3448982,   23.7606106,   2.13848925
   4576,   27.8488007,   22.9700012,   3.07081294
   4577,   27.2768192,   20.5300121,   2.72672129
   4578,   19.4662895,   22.1209984,   16.2192345
   4579,   16.5409184,   21.4587593,   18.4090881
   4580,   18.3001347,   22.0248814,   14.9247637
   4581,   25.0919838,   21.6560173,   7.24001312
   4582,   27.9046707,   22.4512882,   7.40998554
   4583,    30.296896,   22.2152882,   3.48415422
   4584,   28.4481716,   25.6455173,   4.93830013
   4585,   28.2976933,   25.8956356,   8.06009769
   4586,   25.2102852,    25.674984,   8.36737251
   4587,   29.3000011,    22.615715,   9.95816708
   4588,   30.3325195,   24.7026863,   6.61919737
   4589,     31.06917,   4.03357983,   22.5258694
   4590,   16.2830658,   23.2869568,    14.676055
   4591,   19.1129799,   2.33253574,   15.6639566
   4592,   21.2965813,   5.85936546,   16.9851322
   4593,   22.2965813,   2.57420182,   14.8357811
   4594,   19.3004265,   5.90063953,   14.8712645
   4595,   22.2374973,   5.94562387,   14.9249945
   4596,   16.4607506,   2.23808455,   2.88185191
   4597,   24.2991467,   6.24129725,   16.1982555
   4598,   24.2965813,   5.13963413,   14.0492496
   4599,   25.3005486,   4.14929342,   22.9178162
   4600,    27.677784,   1.74703503,   23.1543941
   4601,   27.3005505,   2.07521892,   20.8344841
   4602,   25.3014679,   7.22850084,   22.6531544
   4603,   22.3005505,   4.14929342,   22.9178162
   4604,   24.2463341,   2.11029434,   23.0092754
   4605,   19.1436462,   1.98695421,   2.09301329
   4606,   21.1265812,   2.58634067,   10.6803474
   4607,   29.8176632,     4.584548,    13.814414
   4608,   27.8566017,   5.78907967,   14.5318727
   4609,   18.3017082,   2.46537018,   11.6025934
   4610,    18.314518,   2.24053216,   8.33705235
   4611,   26.3312321,    3.1711266,   6.25239611
   4612,    27.768877,   14.6385183,   2.15580702
   4613,   23.9244976,   3.21475792,   20.5013142
   4614,   22.2971325,    7.0752697,   22.0272408
   4615,   24.3041897,   10.0648556,   22.7438622
   4616,   28.5938034,   9.97177505,   22.6478729
   4617,   27.2971344,    9.4446888,   20.4085293
   4618,   23.2999992,    9.4446888,   20.4085293
   4619,   16.1690559,   26.2211285,   13.7418861
   4620,    18.373991,   25.3596611,     16.27911
   4621,   16.7835274,   22.9692097,   12.3171406
   4622,   19.2370796,   23.8925228,   2.76734447
   4623,   18.8312836,    25.878334,   2.11342072
   4624,   21.8312836,    25.878334,   2.11342072
   4625,   18.4710102,    20.949625,   7.21517658
   4626,   16.3873177,   25.8782997,   2.96731091
   4627,   16.2525501,   21.2108879,    3.6260252
   4628,   18.4914894,   19.6683788,   5.11490583
   4629,   16.2368011,   18.2259979,   5.38461685
   4630,   16.1586018,   18.7929287,   1.89226294
   4631,   16.2530556,   20.2506943,   6.33947802
   4632,   19.0521469,   16.7826653,   4.38869572
   4633,    20.327343,   17.4636726,   2.26489067
   4634,   30.2901096,    12.529109,   22.7497692
   4635,   28.4610405,     11.32862,   2.44782996
   4636,   30.3572865,   26.0853748,    21.572134
   4637,   17.2450161,   7.97336769,   3.85995126
   4638,   22.3634682,   8.53965664,   5.06522274
   4639,   16.2550182,   5.44158077,   4.19530773
   4640,    18.351614,   10.2909613,   4.36082506
   4641,   30.2752075,   20.7432804,    7.2396121
   4642,   30.3000202,   25.9234314,    2.2478478
   4643,   27.3005505,   25.9247799,   2.08275819
   4644,   18.6012039,    7.4896946,   22.1039829
   4645,   16.5204887,   5.40026951,   21.5814781
   4646,   19.2457314,   4.01676941,   22.8326225
   4647,   21.2971325,   7.92588043,   19.0629807
   4648,   19.3003559,   11.3801775,   20.4797401
   4649,   18.8913326,   6.74994993,   18.0794811
   4650,   29.8405495,   20.1346416,   22.3008556
   4651,   30.3130703,   17.7203732,   22.0411205
   4652,    26.967083,   21.7441483,    20.151823
   4653,   29.2966557,   20.9972191,   18.6702385
   4654,   28.2500286,   18.5610714,    19.944418
   4655,   23.2913189,    14.196455,   22.7635841
   4656,     26.28405,   12.0453386,   20.8922234
   4657,   25.3234615,   2.19067883,   4.18516445
   4658,    24.299448,   4.14929342,   2.08218336
   4659,   24.3163853,   7.59203863,   2.64896345
   4660,    22.357132,   24.7892685,   6.91040277
   4661,   24.3334808,    25.821888,    4.3439436
   4662,   24.9093208,   2.08049202,   2.11503291
   4663,   28.2385559,   2.12016463,   2.79603481
   4664,    18.289423,   22.2869186,   10.2056952
   4665,   20.0215282,   23.6302242,    12.305748
   4666,   30.4541988,   25.5210152,    9.5168705
   4667,   30.3147373,   25.4693985,   12.3747406
   4668,   19.1047287,   20.5913754,   2.15002298
   4669,   28.4762688,   25.1619797,   13.9736366
   4670,   27.2998905,   25.7606792,    10.420722
   4671,   27.2965813,   22.8603649,   11.9730377
   4672,   30.0481319,   23.3106766,   13.7332697
   4673,    24.123188,   22.7302704,   10.8511324
   4674,   18.9609032,   9.27211857,   2.18725514
   4675,   22.1482391,   10.4848623,   2.21856689
   4676,   19.8006573,   3.96993303,   18.9071217
   4677,   16.3367271,   3.50394154,   19.1303425
   4678,   18.0301189,   2.04022527,    20.777462
   4679,   22.2965813,   2.93468189,   17.8660583
   4680,   21.3005505,   2.07521892,   20.8344841
   4681,   27.7987175,    2.4075284,   11.8269453
   4682,   30.5642872,    2.2383647,   15.4302063
   4683,   29.0397377,   14.2701912,   21.8078289
   4684,   27.3066292,    15.909996,   22.5624809
   4685,   27.6482067,   16.0944881,   20.0839176
   4686,   23.2923698,   16.2354069,   20.5604534
   4687,    30.363821,   15.0191326,   20.4940643
   4688,   16.4346333,    12.599411,   23.0024185
   4689,    27.337286,   20.0530968,   22.6162567
   4690,   16.2297974,   12.0566368,     20.23666
   4691,   16.1909943,    8.5080986,   20.5797691
   4692,   19.7610722,    10.609479,   22.7774048
   4693,   30.2549343,   24.5611725,   19.4063091
   4694,   16.3785572,    5.1525836,   16.9839077
   4695,   25.2970772,   19.1346207,   19.1235638
   4696,   24.2755508,   22.1453609,   18.2939186
   4697,   22.0030727,   2.06549764,   2.12846637
   4698,   27.6650696,    24.261198,   17.1697102
   4699,   27.2974358,    22.103138,   14.9288607
   4700,    30.339016,   23.2796516,   16.9000607
   4701,   24.0206223,   23.7739182,   22.6250648
   4702,   24.3475628,   20.7870865,   22.6597881
   4703,    25.194397,    25.284935,   17.7522354
   4704,   24.3283863,   13.6593313,   4.46217394
   4705,   24.3121109,   14.0855885,   2.15252209
   4706,   24.3491135,   11.0148802,    4.5234704
   4707,   22.0976353,   10.9523506,   4.70772982
   4708,    21.290863,     14.62257,   2.26636982
   4709,   21.8391838,   16.8684273,   4.46709204
   4710,   26.0209961,   12.1232052,   3.73342037
   4711,   28.3703327,   14.4657345,   4.13037157
   4712,   16.4365788,   22.6258526,   21.7924118
   4713,   16.9115009,   25.1099873,   21.7029858
   4714,   19.0187149,   25.9183159,   22.8507652
   4715,   16.4976845,   24.2737083,   18.1716919
   4716,    20.258276,    25.829401,   20.5649624
   4717,   19.9716473,   23.2321854,   19.4351521
   4718,   19.6749306,   23.8517799,   22.7824326
   4719,    30.013979,   26.2478104,   16.9498291
   4720,   30.1072979,   5.06386852,   9.09666348
   4721,   30.1027889,    1.9479804,   2.82330966
   4722,   30.3312149,   6.50084162,   7.02237606
   4723,   21.0703716,   24.7598934,   14.4987059
   4724,   30.1880932,   17.2718639,   5.09317875
   4725,   30.7065868,   14.1465445,   4.95288467
   4726,   21.6354733,    20.864399,   21.3984642
   4727,   21.7212467,   21.8740673,   16.9337349
   4728,    24.299572,   22.0993576,   14.8712606
   4729,    18.302866,   14.5275488,   2.11755848
   4730,   19.5017605,   13.4348106,   4.34630251
   4731,   19.2637768,   13.8648205,   22.6602879
   4732,   21.6796379,   16.5296001,    22.284687
   4733,   21.3937149,   26.4068451,    22.942728
   4734,   29.3172436,   18.1322079,   2.27232385
   4735,   25.2965794,   2.57420182,   14.8357811
   4736,   21.2998924,   25.7606792,    10.420722
   4737,   24.1124992,   25.7022095,   11.6365433
   4738,   21.1784286,   22.2962799,   9.76510906
   4739,   24.5969257,   25.9345016,    2.1284647
   4740,   22.1437836,   2.09683609,   22.9223919
   4741,   18.9563522,   2.06691837,   22.9786167
   4742,   25.3366604,   10.2505207,   2.25022435
   4743,   21.3553352,   12.4818754,   20.8675804
   4744,   24.8454742,   18.8413982,   22.6723423
   4745,    25.299942,   25.7606831,   14.5872774
   4746,   22.8604832,     24.66786,   17.7167377
   4747,   28.8863182,    5.9995513,   11.3977947
   4748,   27.6558151,   17.1158886,   4.77354717
   4749,    16.350935,   6.30096579,    7.2125783
   4750,   16.6374283,   2.00523138,   23.2542038
   4751,    16.101675,   18.6418152,   18.7974224
   4752,   16.1123905,   10.9918814,   5.07062197
*Element, type=C3D4
   1, 2643,   49,  822,  817
   2, 2643, 2644, 2645,  817
   3, 2643, 2646,  623, 2647
   4, 2643, 2644, 2647, 2645
   5, 2648, 2649, 2650,  621
   6, 2649, 2650,  621, 2651
   7,  626, 2651, 2650, 2652
   8, 2651,  627, 2652,  626
   9, 2651, 2652,  627, 2647
  10,  622, 2653, 2654, 2651
  11, 2655, 2656,  857, 2657
  12, 2651, 2653, 2652, 2647
  13, 2656,  857,  858, 2655
  14, 2658,  766,  112,  111
  15,  111, 2658, 2659,  744
  16, 2658,  765,  112,  766
  17, 2658, 2659,  744, 2660
  18, 2658, 2659, 2660, 2661
  19, 2662, 2663,  898, 2664
  20, 2658,  788, 2665,  765
  21, 2658, 2665,  788, 2661
  22, 2666, 2667, 2668, 2669
  23, 2670, 2666, 2671, 2672
  24, 2670, 2673, 2669, 2666
  25, 2670, 2672, 2674, 2673
  26, 2670, 2674, 2672, 2675
  27, 2670, 2675,  637, 2676
  28, 2677, 2678, 2679, 2680
  29, 2677, 2681, 2669, 2679
  30, 2682,  676,  684,  683
  31, 2677, 2669, 2681, 2683
  32, 2677, 2684, 2669, 2685
  33,  858, 2655, 2686, 2656
  34, 2687, 2688, 2689, 2690
  35, 2688, 2689, 2690, 2691
  36, 2691, 2688, 2692, 2690
  37, 2691, 2693, 2694, 2695
  38, 2691, 2693, 2695, 2696
  39, 2691, 2689, 2686, 2696
  40, 2697,  804,  846, 2698
  41,  733,  827,  805, 2699
  42,  857,  858,  844, 2656
  43, 2700, 2701,  807,  793
  44, 2699,  805, 2697,  804
  45, 2688, 2702, 2661, 2687
  46, 2691, 2703, 2690, 2692
  47, 2688, 2690, 2687, 2704
  48, 2687, 2702, 2694, 2688
  49,  826,   97,   98,  702
  50, 2688, 2702, 2705, 2660
  51, 2706,  830,  824,  608
  52, 2707,  116,  784,  764
  53, 2708,  716,  710,  711
  54, 2709,  689,  696,  688
  55,  115, 2707,  116,  784
  56, 2707,  784,  115,  763
  57, 2710, 2707, 2711, 2712
  58, 2712, 2707,  764,  719
  59, 2713,  711,  712,  717
  60, 2707,  724, 2710, 2714
  61, 2715, 2716, 2717, 2718
  62, 2715, 2717, 2719, 2720
  63, 2715, 2721, 2718, 2717
  64, 2722,  798, 2723, 2646
  65, 2722, 2724, 2654, 2657
  66, 2722, 2654,  618, 2646
  67, 2722,   47,  823,  618
  68, 2692,  604,  599,  605
  69, 2722,  823,   47,  816
  70, 2722, 2725,  798,  816
  71, 2726, 2651, 2654, 2653
  72, 2651, 2649,  622,  621
  73, 2653,  856, 2726, 2727
  74, 2653, 2644, 2646, 2723
  75, 2653, 2644, 2647, 2646
  76, 2653, 2726,  856, 2723
  77, 2653, 2646,  623, 2654
  78, 2728, 2729, 2730,  607
  79, 2728, 2706,  603, 2731
  80, 2728, 2730, 2732, 2731
  81, 2728, 2732, 2706, 2733
  82, 2728, 2731, 2732, 2733
  83,  695, 2734, 2735, 2736
  84, 2734, 2737, 2735, 2736
  85, 2734, 2738,  702,  826
  86, 2736,  718, 2738, 2739
  87, 2734, 2736,  695,  702
  88, 2740, 2737, 2709, 2735
  89, 2740, 2741, 2742, 2743
  90, 2740, 2741, 2744, 2709
  91, 2745,  670, 2746,  669
  92, 2745, 2747,  828, 2645
  93, 2748, 2645, 2749, 2745
  94, 2745, 2747, 2645, 2749
  95, 2750, 2738, 2700, 2737
  96, 2740, 2751, 2752, 2735
  97, 2740, 2709, 2713, 2741
  98, 2740, 2750, 2752, 2753
  99, 2737, 2736, 2709, 2735
 100, 2737, 2739, 2736, 2738
 101, 2737, 2754, 2713, 2739
 102,  792, 2750,  836, 2755
 103, 2736,   98,  713,   99
 104,  821, 2756,  792,  820
 105, 2756,  792,  820, 2755
 106, 2755,  795, 2757,  792
 107, 2758, 2759, 2760, 2761
 108, 2758, 2762,  685,  684
 109, 2760, 2762, 2763, 2758
 110, 2764,  137, 2765,  811
 111, 2758, 2766,  692, 2763
 112, 2767, 2695,  872, 2663
 113, 2663, 2768,  873, 2767
 114, 2769,  674, 2770,  102
 115,  726, 2768,  731, 2771
 116,  786,  674,   84,  675
 117, 2768,  731, 2771, 2767
 118, 2767, 2771,  732,  731
 119, 2767,  872, 2695, 2772
 120, 2767, 2768,  873, 2771
 121, 2767, 2771, 2772,  732
 122, 2715, 2717, 2720, 2721
 123, 2718,  882, 2773, 2721
 124, 2718, 2774,  895, 2721
 125, 2717, 2716, 2775, 2776
 126, 2716, 2718, 2776, 2717
 127, 2716, 2774, 2718, 2715
 128,  643, 2671, 2670, 2777
 129, 2777, 2778, 2779, 2780
 130, 2777, 2670,  643,  648
 131, 2777, 2778, 2780,  648
 132, 2777,   70,  769,  648
 133, 2777,  769,   70,  768
 134, 2781,  759, 2782, 2783
 135, 2781, 2666, 2780,  891
 136, 2781, 2779,  123,  891
 137,  755,  888, 2784, 2785
 138,  778,  609,   60,   61
 139,  890,  759,  891, 2783
 140, 2781,  891,  123,  759
 141, 2786, 2693,  737, 2787
 142, 2760, 2766, 2763, 2788
 143, 2787,  737, 2786,  738
 144, 2787, 2733, 2789, 2790
 145, 2692,  605,  600,  606
 146, 2787, 2733,  806, 2789
 147, 2787,  738, 2786,  806
 148, 2787, 2732,  742, 2733
 149,   88, 2791, 2792,  780
 150, 2791,  780,   88,   87
 151, 2792,   88,  779, 2793
 152,  678, 2793,   88, 2791
 153, 2667,  648, 2794,  647
 154, 2791,  754, 2792,  780
 155, 2791, 2792, 2762, 2793
 156, 2791, 2795,  754,  773
 157, 2792, 2783, 2793, 2782
 158, 2791, 2762, 2792, 2796
 159, 2792, 2793,  779, 2782
 160, 2792,  890, 2796, 2783
 161,  122,  754,  759,  890
 162,  117,  764,  719,  714
 163,  754, 2796, 2791, 2792
 164, 2659,   62,  783,    1
 165, 2658, 2702, 2661, 2660
 166, 2659,  783,   62,  790
 167, 2659,   39, 2660,  599
 168, 2659,  790, 2661,  783
 169, 2691, 2732, 2797, 2693
 170, 2732,  747, 2733, 2731
 171, 2732, 2733, 2798, 2706
 172, 2790, 2789,  845, 2798
 173, 2787, 2790, 2789, 2786
 174, 2790, 2733, 2789, 2798
 175, 2787,  743, 2733,  742
 176, 2787, 2732, 2790, 2693
 177, 2732,  742, 2733,  747
 178, 2790, 2693, 2696, 2772
 179, 2669, 2668, 2666, 2673
 180, 2669, 2674, 2684, 2788
 181, 2799, 2800, 2709,  688
 182, 2740, 2752,  862, 2753
 183, 2741, 2712, 2708, 2801
 184, 2740, 2751, 2709, 2744
 185, 2741, 2713, 2754, 2801
 186, 2741, 2802, 2743, 2744
 187, 2740, 2741, 2743, 2744
 188, 2666, 2670, 2667, 2669
 189, 2670,  638, 2672, 2671
 190, 2667, 2668, 2669, 2803
 191, 2666, 2673,  878, 2783
 192, 2666, 2782, 2672, 2673
 193, 2672, 2793, 2782,  774
 194, 2675,   67,  680,  638
 195, 2717, 2719, 2804, 2805
 196, 2717, 2805, 2806, 2775
 197, 2715, 2774, 2721,  756
 198, 2717, 2807, 2808, 2773
 199, 2717, 2806, 2807, 2776
 200, 2719, 2809, 2805, 2716
 201, 2719,  630, 2810, 2811
 202, 2719, 2716,  624, 2809
 203, 2719, 2810,  630,  625
 204, 2719, 2810,  625, 2720
 205, 2812, 2813, 2814, 2815
 206, 2736, 2739, 2713,  718
 207, 2816,  142,  836,  835
 208, 2812, 2814, 2817, 2815
 209, 2812, 2818, 2794,  651
 210, 2812, 2814, 2819, 2817
 211, 2794, 2812,  652, 2820
 212, 2821, 2822,  851,  850
 213, 2821, 2788, 2679, 2823
 214, 2821, 2823, 2824, 2766
 215,  864, 2821, 2673, 2679
 216, 2821, 2760, 2766, 2759
 217, 2825,  860, 2826,  847
 218, 2821, 2679,  851, 2680
 219,  708, 2827,  831, 2828
 220, 2677, 2829, 2827, 2830
 221, 2827,  825, 2831, 2832
 222, 2827, 2829, 2833, 2830
 223, 2827,  813, 2831,  825
 224, 2827,  639,  813,  634
 225, 2827,  634, 2833, 2829
 226, 2647, 2747, 2727, 2749
 227, 2745, 2748, 2746, 2749
 228, 2747,  794, 2834, 2835
 229, 2745, 2645,  828,  815
 230, 2745, 2836,  670,  665
 231, 2745,  815,   77,   76
 232, 2747, 2834, 2837, 2835
 233, 2644,  843, 2723, 2838
 234, 2644, 2646,  798,  822
 235, 2643, 2644,  817,  822
 236, 2644, 2645,  817,  828
 237, 2747,  828, 2644,  802
 238, 2643, 2644, 2646, 2647
 239, 2643, 2645, 2647,  628
 240, 2749, 2746,  632,  633
 241, 2747,  802, 2644, 2838
 242, 2749, 2748, 2746,  633
 243, 2747, 2808, 2749, 2745
 244, 2805,  667, 2775,  668
 245, 2675,   66,   67,  638
 246, 2805,  772, 2716, 2809
 247, 2805,  667, 2806, 2775
 248, 2719, 2811, 2805, 2809
 249, 2738,  833,  832,  808
 250, 2733,  806,  814,  109
 251, 2733, 2732, 2790, 2787
 252, 2839, 2712, 2707,  764
 253,  757,  887,  761, 2839
 254, 2800,  101,  100,  711
 255, 2839, 2840,  789, 2784
 256, 2839, 2840, 2784, 2712
 257, 2839, 2840,  764,  789
 258, 2841, 2842, 2648,  615
 259, 2841, 2843, 2844, 2842
 260, 2845, 2842,  776, 2843
 261, 2708,  710,  715,  709
 262, 2842, 2841, 2845,  614
 263, 2843, 2841, 2845, 2842
 264, 2776, 2716, 2775, 2774
 265, 2702, 2846, 2664, 2665
 266, 2702, 2847, 2665, 2664
 267, 2658, 2702, 2665, 2661
 268, 2702, 2846, 2665, 2661
 269, 2717, 2806, 2808, 2807
 270, 2808, 2773, 2727, 2652
 271, 2808, 2848, 2727, 2807
 272, 2808, 2849, 2806, 2804
 273, 2850, 2780, 2778, 2820
 274, 2850, 2819,  879, 2820
 275, 2850,  892, 2778, 2780
 276, 2850, 2851, 2852, 2778
 277, 2850, 2778,  892, 2851
 278, 2662, 2663, 2714,  899
 279, 2662,  760,  130,    9
 280, 2662,    9, 2853,  760
 281, 2662, 2664, 2665, 2847
 282, 2662, 2664, 2847, 2663
 283, 2826,  803, 2854,  847
 284, 2698,  804,  846, 2789
 285, 2699, 2789,  806,  804
 286, 2697, 2698,  847, 2826
 287, 2699, 2826, 2697,  805
 288, 2697,  846,  131,  847
 289, 2697,  847,  131,   10
 290, 2750, 2756, 2752, 2855
 291, 2752, 2855, 2822, 2856
 292, 2752, 2857,  862,  863
 293, 2750, 2856, 2752,  849
 294, 2821, 2759, 2752,  863
 295, 2705, 2694, 2797,  741
 296, 2688, 2705, 2702, 2694
 297, 2691, 2732, 2696, 2686
 298, 2705,  746, 2797, 2858
 299, 2691, 2692, 2797, 2730
 300, 2691, 2705, 2694, 2797
 301, 2705, 2660, 2858, 2692
 302, 2779,  124,  123,  891
 303, 2779,  124,  751,  123
 304, 2777, 2779, 2781, 2780
 305, 2781, 2779,  891, 2780
 306, 2778,  124, 2779,  892
 307, 2778,  892, 2779, 2780
 308, 2808, 2810, 2859, 2804
 309, 2859, 2804, 2860, 2861
 310, 2859,  631, 2860, 2810
 311, 2859, 2652,  626, 2810
 312, 2862, 2706,  603,  830
 313, 2862, 2706,  830,  814
 314, 2862, 2731,   43,  603
 315, 2862,   43, 2731,  748
 316, 2733, 2862, 2731,  748
 317,  713,  712,  718, 2736
 318, 2840, 2708, 2741, 2712
 319, 2770, 2708, 2863,  709
 320, 2740, 2754, 2737, 2753
 321,  762, 2863,  709, 2769
 322, 2769, 2863,  709, 2770
 323, 2769, 2863,  786,  762
 324, 2769,  102, 2770,  709
 325, 2769,   84,  762,  786
 326, 2769,  709,    7,  102
 327, 2769,  674,    7,   84
 328, 2848, 2727, 2807,  868
 329, 2864, 2807, 2848, 2849
 330, 2834, 2808, 2848, 2727
 331, 2860,   54, 2811,  630
 332, 2860, 2861,  671,   53
 333, 2860,   53,  671,   54
 334, 2675, 2865,   66,  637
 335, 2675, 2865,  637, 2676
 336, 2675,   66, 2865,  687
 337, 2675, 2865, 2674,  687
 338, 2865,   65, 2866,  694
 339, 2859, 2861,  632, 2746
 340, 2859, 2861, 2836, 2804
 341, 2861, 2746,  670,   52
 342, 2861, 2746,   52,  632
 343, 2861, 2746, 2836,  670
 344, 2860, 2861, 2804,  671
 345, 2734, 2750, 2756, 2735
 346, 2737, 2750, 2753, 2700
 347,  819,  820,  795, 2855
 348,  832, 2700, 2816, 2750
 349, 2750,  792,  821, 2756
 350, 2750, 2700,  836,  849
 351, 2734, 2737, 2736, 2738
 352, 2715, 2845, 2721, 2720
 353,  787, 2715,  782, 2716
 354, 2718, 2776,  881, 2867
 355, 2716, 2809,  772,  787
 356, 2715, 2774,  756,  782
 357, 2797,  741,  742,  747
 358, 2868,  662,  657,  663
 359, 2715,  624, 2719, 2716
 360, 2651, 2773, 2650, 2652
 361, 2713,  717,  716,  711
 362, 2786, 2869,  732,  737
 363, 2717, 2650, 2652, 2810
 364,  826,  713,  103,  808
 365, 2841, 2648, 2650,  620
 366, 2650, 2870, 2721, 2773
 367, 2841, 2844, 2721, 2870
 368, 2841, 2721, 2845, 2720
 369, 2669, 2685, 2684, 2676
 370, 2685,  641, 2803,  640
 371, 2799, 2736, 2713,  712
 372, 2799, 2736,   99,  695
 373, 2799, 2736,  695, 2709
 374, 2799,  100, 2800,  688
 375, 2850, 2851,  892,  893
 376, 2780, 2794,  648, 2778
 377, 2799,   99,  712,  100
 378, 2670, 2672,  638, 2675
 379,  762,  118,  714,  117
 380, 2777, 2666, 2667, 2780
 381, 2777,  643, 2671,  768
 382, 2781, 2671, 2666, 2782
 383, 2726, 2655, 2871,  870
 384, 2808, 2859, 2810, 2652
 385, 2808, 2747, 2834, 2837
 386, 2727,  869, 2773,  868
 387, 2727, 2838,  855, 2834
 388, 2727, 2807,  868, 2773
 389, 2748,  633, 2645,  817
 390, 2748, 2746,   51,  669
 391, 2748,  633,    3,   51
 392,  633, 2645, 2749, 2748
 393, 2748,   76,    3,   50
 394, 2846, 2665, 2661,  788
 395, 2846,  788, 2872,  749
 396, 2846,  898, 2665,  750
 397, 2846, 2664,  898,  897
 398, 2677, 2832, 2827, 2831
 399, 2685, 2829, 2830, 2833
 400, 2819,  880,  866,  867
 401, 2685, 2829,  640, 2683
 402, 2714, 2662,  760, 2873
 403, 2677, 2823, 2830, 2874
 404, 2831,  639,  813, 2827
 405, 2685, 2683,  640, 2803
 406, 2829,  639, 2683, 2831
 407,  639, 2829, 2827, 2831
 408, 2685, 2866, 2833, 2830
 409, 2843,  896, 2844, 2875
 410, 2843, 2875, 2842, 2872
 411,  819,  705,   94,  820
 412, 2728,  608,  607,  602
 413, 2843, 2845,  752,  776
 414, 2843, 2842,  777, 2872
 415, 2684,  701, 2866, 2830
 416, 2865, 2684, 2866, 2676
 417, 2791,  780,   87,  773
 418, 2795, 2785,  755,  781
 419,   47, 2722,  613,  618
 420, 2795, 2785,  781, 2682
 421, 2795,  889, 2796,  754
 422, 2795,  754, 2796, 2791
 423,  871, 2655, 2871, 2686
 424, 2728, 2732, 2729, 2706
 425, 2691, 2732, 2686, 2703
 426, 2655, 2703, 2686, 2729
 427, 2726, 2657,  857, 2723
 428, 2871, 2703, 2686, 2655
 429,  651, 2794, 2812,  652
 430, 2820, 2780, 2794, 2668
 431,  657, 2812, 2864, 2852
 432, 2812, 2820, 2794, 2817
 433, 2820, 2668, 2794, 2817
 434, 2819, 2820, 2817,  866
 435, 2695, 2694, 2687, 2664
 436, 2695, 2694, 2664, 2663
 437, 2693, 2695, 2772, 2869
 438, 2767, 2695, 2869, 2772
 439, 2694, 2876, 2663, 2695
 440, 2717, 2810, 2719, 2720
 441, 2769,    7,  709,  118
 442, 2877, 2775,  771, 2774
 443, 2868, 2877, 2867, 2776
 444, 2877, 2775, 2868,  663
 445, 2877, 2851,  770, 2868
 446,  679,  779,   89,   88
 447, 2793, 2673, 2782, 2783
 448, 2793, 2673, 2796, 2763
 449, 2793, 2782,  774,  779
 450, 2793, 2791, 2792,   88
 451, 2792, 2782,  759, 2783
 452, 2792, 2796, 2793, 2783
 453,  780,   88,  779, 2792
 454, 2792, 2762, 2793, 2796
 455, 2755, 2750,  836, 2856
 456, 2755, 2855,  820, 2756
 457, 2855,  705, 2824,  819
 458, 2755, 2680, 2757,  795
 459, 2855, 2759, 2822, 2824
 460, 2734,  821,   96,  703
 461, 2855,  819, 2680,  795
 462, 2878, 2771, 2768,  726
 463, 2771, 2879,  727, 2880
 464, 2769,  118,   84,    7
 465, 2878, 2880, 2771,  726
 466, 2878, 2768, 2710,  725
 467, 2767, 2881, 2876, 2663
 468, 2771, 2879,  732,  727
 469, 2882, 2858,  746,   41
 470, 2882, 2731,   42,  747
 471, 2882,  746,   42,   41
 472, 2732, 2883, 2686, 2729
 473, 2693, 2695, 2696, 2772
 474, 2691, 2695, 2694, 2689
 475, 2696, 2772,  872,  859
 476, 2693, 2786, 2790, 2787
 477, 2790,  858, 2696, 2883
 478, 2691, 2730, 2732, 2703
 479, 2686,  871, 2696, 2689
 480, 2686, 2696,  858, 2883
 481, 2851, 2877, 2867, 2868
 482, 2806, 2776, 2775, 2868
 483, 2806, 2776, 2864, 2807
 484, 2861,  671,   53,  670
 485, 2861,   52,   53,  631
 486, 2745, 2747, 2837, 2835
 487, 2745,  828, 2747,  809
 488, 2749, 2746, 2859,  632
 489, 2859, 2652,  627,  626
 490, 2749,  627, 2859, 2652
 491, 2749, 2652, 2647,  627
 492, 2746,  669,   52,   51
 493, 2748,   51, 2746,  633
 494, 2695, 2689, 2696,  871
 495, 2767, 2768,  730, 2881
 496, 2732, 2730, 2729, 2703
 497, 2695, 2689,  871,  884
 498, 2767, 2772,  873,  872
 499, 2772, 2786,  732, 2698
 500, 2790, 2698, 2789, 2786
 501, 2693,  736, 2694, 2876
 502, 2732, 2731, 2797,  747
 503, 2733,  829, 2706,  814
 504,  804, 2699, 2698, 2697
 505, 2699, 2789, 2786,  806
 506, 2789, 2798,  829,  800
 507, 2769,  762,   84,  118
 508, 2799, 2736,  712,   99
 509, 2799,  100,  712,  711
 510, 2734, 2738,  833,  832
 511, 2737, 2709, 2736, 2713
 512, 2736,  702,  713,   98
 513, 2736,   99,  702,   98
 514, 2799,  100,  695,   99
 515, 2677, 2683, 2678, 2831
 516, 2683, 2884,  644,  645
 517, 2683, 2884,  639,  644
 518, 2670, 2669, 2674, 2676
 519, 2683, 2818, 2884,  645
 520, 2677, 2823, 2684, 2830
 521, 2685, 2829,  635,  640
 522, 2828, 2827,  831,  813
 523, 2683,  639, 2884, 2831
 524, 2877,  663, 2868,  770
 525, 2718,  881, 2807, 2773
 526, 2717, 2650, 2773, 2652
 527, 2843, 2875,  749,  896
 528, 2775, 2868,  663,  662
 529, 2806, 2775,  662, 2868
 530, 2717, 2805, 2804, 2806
 531, 2724, 2654, 2657, 2885
 532, 2722, 2724, 2657, 2725
 533, 2724, 2725,  816,  796
 534, 2724, 2706, 2883, 2798
 535,  816,  824,   46,  613
 536,  824, 2724,  613,  816
 537, 2724, 2729, 2706,  608
 538, 2724, 2729,  608,  613
 539,  762,  709,  714,  118
 540,  886, 2714,  887, 2710
 541, 2768, 2714,  725, 2881
 542, 2768,  886,  873,  874
 543, 2878, 2768,  725,  726
 544,  817,   50,  628,   49
 545,  887, 2714, 2707, 2710
 546,  761, 2707,  887, 2853
 547, 2710, 2714,  724,  725
 548, 2707,  719, 2710,  724
 549, 2701,  105,  718,  807
 550, 2707, 2711, 2839,  887
 551, 2879, 2825, 2771, 2826
 552, 2825, 2879, 2854, 2826
 553,  847,  835,  803, 2854
 554, 2854,  835,  803, 2701
 555, 2886,  860, 2825,  848
 556, 2825, 2880, 2771, 2886
 557, 2770,  681,  101,  102
 558, 2825, 2700,  835, 2701
 559, 2762, 2760, 2887, 2761
 560, 2791, 2887, 2795, 2682
 561, 2793, 2762,  678,  685
 562, 2762, 2761, 2887, 2682
 563, 2758,  691, 2761,  684
 564, 2758, 2762,  684, 2761
 565, 2793, 2796, 2762, 2763
 566, 2722,  613, 2724,  816
 567, 2657, 2729, 2885, 2655
 568, 2724, 2729,  612, 2885
 569, 2653, 2838, 2727, 2647
 570, 2656,  858,  844, 2883
 571, 2724,  612, 2729,  613
 572, 2828,    5,  634,   83
 573, 2726, 2871, 2655, 2649
 574, 2724, 2657, 2883, 2729
 575, 2767,  732, 2772, 2869
 576,  873,  861, 2886, 2768
 577, 2825,  847, 2826, 2854
 578, 2825, 2879, 2701, 2854
 579, 2879, 2701,  723, 2880
 580, 2825, 2879, 2880, 2701
 581,  853,  852, 2817, 2815
 582, 2683, 2765, 2815, 2681
 583, 2814,  840, 2815, 2764
 584, 2873,  115,  724,  729
 585, 2815, 2764,  840, 2765
 586, 2820, 2778,  653, 2794
 587, 2850, 2888, 2852, 2851
 588,  893, 2889, 2867, 2851
 589, 2734,  833,   96,  821
 590, 2734,   96,  833,   97
 591, 2734, 2737, 2738, 2750
 592, 2734, 2750,  821, 2756
 593, 2737, 2713, 2736, 2739
 594, 2734, 2738,  826,  833
 595, 2736,  713, 2738,  718
 596, 2738,  826,  833,  808
 597, 2679,  838, 2678,  839
 598,  830,   45,  603,   44
 599, 2669, 2681, 2683, 2803
 600, 2677, 2669, 2823, 2679
 601,  831,  707,  708,   91
 602, 2677, 2685, 2683, 2829
 603, 2821, 2823, 2679, 2680
 604, 2679,  838, 2680, 2678
 605, 2679, 2681,  865,  852
 606, 2679, 2681, 2765, 2678
 607, 2677, 2827, 2829, 2831
 608, 2821, 2823, 2766, 2788
 609, 2679,  839, 2678, 2765
 610, 2796, 2760, 2762, 2763
 611, 2760, 2673, 2788, 2763
 612, 2760, 2673, 2796,  877
 613, 2848, 2837, 2890, 2891
 614, 2744,  690,  682,  683
 615, 2848, 2834, 2727,  855
 616, 2834, 2835, 2892, 2890
 617, 2747,  842,  794,  802
 618,  826,   98,   97,    8
 619, 2834, 2890,  842,  855
 620, 2814, 2848, 2890, 2891
 621, 2835, 2892,  810,  794
 622, 2835, 2890,  654,  810
 623,  659,  810,  809, 2835
 624, 2850, 2852, 2820, 2778
 625, 2837, 2891,  660, 2835
 626, 2745,  809, 2835,  664
 627, 2835,  659, 2837,  664
 628, 2880, 2700, 2739, 2753
 629, 2878, 2880,  721, 2754
 630, 2825, 2886, 2753, 2880
 631, 2771, 2698, 2826,  860
 632, 2825, 2771, 2826,  860
 633, 2880, 2739, 2754, 2753
 634, 2886, 2771, 2825,  860
 635, 2880, 2754,  722,  721
 636, 2772,  732, 2786, 2869
 637, 2790, 2772,  859, 2698
 638, 2790, 2883,  845,  858
 639, 2699,  738, 2786,  733
 640, 2732, 2883, 2706, 2798
 641, 2728, 2733, 2706, 2731
 642, 2787, 2693,  737,  742
 643, 2733, 2862, 2706, 2731
 644, 2859, 2861,  631,  632
 645, 2749, 2808, 2859, 2836
 646, 2651, 2647,  627,  622
 647, 2717, 2652, 2808, 2810
 648, 2859,  631, 2810,  626
 649, 2717, 2650, 2810, 2720
 650, 2656, 2729, 2655, 2686
 651, 2644, 2646, 2723,  798
 652, 2657, 2723, 2725,  844
 653, 2723,  798, 2725,  844
 654, 2717, 2808, 2804, 2810
 655, 2749, 2808, 2652, 2859
 656, 2808, 2807, 2727, 2773
 657, 2808, 2848, 2807, 2849
 658, 2806,  662, 2864, 2868
 659, 2720,  619,  620,  625
 660, 2848,  868, 2807,  867
 661, 2864, 2807,  880,  867
 662, 2807,  881,  880,  867
 663, 2808, 2837, 2848, 2849
 664, 2806, 2864, 2849, 2807
 665, 2768,  886, 2714, 2663
 666, 2662, 2881, 2714, 2663
 667, 2714, 2853,  899,  887
 668, 2884,   81,  811,  812
 669,   81,  811, 2764, 2884
 670, 2683,  640, 2803,  645
 671, 2683, 2831, 2884, 2765
 672, 2884,  645, 2818,  650
 673, 2829,  640, 2683,  639
 674, 2884, 2831,  639,  812
 675, 2708,  715, 2712,  714
 676, 2741, 2709, 2893, 2744
 677, 2799, 2713, 2800,  711
 678, 2799, 2736, 2709, 2713
 679, 2799, 2709,  695,  688
 680, 2800, 2741, 2709, 2893
 681, 2709, 2744, 2751,  689
 682, 2733, 2789, 2798,  829
 683, 2839, 2711, 2712, 2784
 684, 2839, 2784,  789,  757
 685, 2802, 2840,  786, 2863
 686, 2708, 2863,  709, 2840
 687,  818, 2874,  707,  706
 688,  709,  714, 2708, 2840
 689, 2840,  786, 2863,  762
 690, 2751,  689,  697,  696
 691, 2667, 2668, 2794, 2780
 692, 2850, 2852, 2819, 2820
 693, 2794, 2820,  652,  653
 694, 2667, 2780, 2794,  648
 695, 2841, 2844, 2843, 2845
 696, 2841, 2650, 2870, 2721
 697, 2843, 2844, 2842, 2875
 698, 2842,  778, 2872, 2704
 699, 2842,   60,  777,  778
 700, 2842,   60,  614,  777
 701, 2845, 2843,  896, 2844
 702, 2844, 2845,  895,  896
 703,  807, 2739, 2701, 2700
 704, 2686, 2871,  871, 2689
 705, 2655, 2657, 2654, 2885
 706, 2726, 2649, 2870, 2871
 707, 2655, 2649, 2885, 2654
 708, 2653, 2727, 2838,  856
 709,  870,  871, 2655, 2871
 710, 2823, 2874, 2680, 2824
 711,  699, 2823, 2824, 2874
 712, 2823, 2874,  699,  700
 713, 2823, 2766, 2788,  693
 714, 2669, 2673, 2679, 2668
 715, 2681, 2678, 2677, 2683
 716, 2677, 2680, 2832, 2678
 717, 2684, 2830, 2823,  700
 718, 2677, 2680, 2679, 2823
 719, 2713, 2741, 2709, 2800
 720, 2713, 2754,  716,  717
 721, 2713, 2739,  717,  718
 722, 2736, 2738,  713,  702
 723, 2740, 2857, 2744, 2743
 724, 2740, 2737, 2735, 2750
 725, 2709,  696, 2735,  695
 726, 2680, 2824,  818,  819
 727, 2855, 2824, 2680,  819
 728, 2680, 2678,  799, 2832
 729, 2680, 2832,  799,  818
 730, 2680,  838,  139,  799
 731,  655, 2890, 2835, 2891
 732, 2890, 2892,  842,  841
 733, 2835, 2891,  660,  655
 734, 2890, 2892,  841,  801
 735,  845, 2883,  844,  858
 736, 2732, 2729, 2706, 2883
 737, 2696, 2883, 2732, 2790
 738, 2724, 2706, 2729, 2883
 739, 2724, 2885,  612, 2654
 740, 2655,  857,  858,  871
 741, 2760,  863, 2857, 2759
 742, 2761, 2887, 2682, 2744
 743, 2758, 2759,  691, 2766
 744, 2762, 2761, 2682,  684
 745, 2715, 2845,  756, 2721
 746, 2715, 2845, 2720,  624
 747, 2774,  894,  756,  126
 748, 2774,  753,  894,  126
 749, 2805,  668, 2775,  772
 750, 2833,  708,  701,   63
 751, 2716, 2775, 2774,  771
 752, 2805, 2716,  772, 2775
 753, 2717, 2805, 2775, 2716
 754, 2805, 2804,  672, 2811
 755, 2877, 2776, 2774, 2867
 756, 2774,  895, 2721,  756
 757, 2718,  895, 2774,  894
 758, 2862,  830,  603,   44
 759, 2718, 2807, 2717, 2773
 760, 2852, 2778, 2851,  658
 761, 2878, 2710,  720,  725
 762, 2851,  124,  125,  758
 763, 2851,  125,  124,  892
 764,  894, 2889, 2774, 2867
 765, 2852, 2888, 2868, 2851
 766, 2864, 2888,  880, 2807
 767,  658,  770,  758, 2851
 768, 2847,  740,  739,  734
 769,   72,  658,  770,  758
 770, 2889,  125, 2851,  893
 771, 2859, 2861, 2860,  631
 772, 2859, 2810, 2860, 2804
 773, 2804, 2836,  666,  671
 774, 2805, 2804, 2806,  667
 775, 2860, 2804, 2811,  672
 776, 2728, 2729, 2732, 2730
 777, 2790, 2696,  858,  859
 778, 2733, 2706,  829, 2798
 779, 2733, 2706, 2862,  814
 780, 2862,   44,  814,  830
 781, 2706,  829, 2798,  824
 782, 2724,  608, 2706,  824
 783, 2728,  603, 2706,  608
 784, 2658, 2665, 2702,  739
 785, 2853, 2662,  760, 2714
 786, 2665,  734, 2847,  739
 787, 2662,  898, 2665, 2664
 788, 2768,  725,  726,  731
 789, 2658, 2661,  788,  766
 790, 2878, 2753, 2754, 2742
 791, 2659,  744, 2660,   39
 792, 2662, 2873, 2847, 2665
 793, 2665, 2873, 2847,  734
 794, 2814, 2890, 2764, 2813
 795, 2814, 2815,  840,  853
 796, 2812, 2864, 2814, 2891
 797, 2813, 2891,  655,  650
 798, 2806, 2864, 2776, 2868
 799, 2814, 2864, 2848, 2891
 800, 2814, 2890, 2848,  854
 801, 2814, 2815, 2813, 2764
 802,  650, 2815, 2884, 2764
 803, 2817,  865, 2681,  852
 804, 2820, 2668,  879, 2780
 805, 2778, 2794,  648,  653
 806, 2889,  893,  126,  125
 807, 2817, 2681,  865, 2668
 808, 2818, 2668, 2803, 2681
 809, 2681, 2817, 2818, 2668
 810, 2820, 2852, 2819, 2812
 811,  819,   93,   94,  705
 812, 2812, 2852,  657,  652
 813, 2852, 2888, 2864, 2868
 814, 2889, 2851,  125,  770
 815, 2812,  657,  656,  651
 816,  879, 2820,  866, 2668
 817, 2677, 2829, 2683, 2831
 818, 2684,  700, 2823,  693
 819, 2865,  694, 2684, 2674
 820, 2685, 2833, 2866,  635
 821, 2866,   64, 2833,  701
 822, 2685, 2866,  636,  635
 823, 2866,  636,   64,   65
 824, 2865,  636, 2866,   65
 825, 2843,  749, 2875, 2872
 826, 2844, 2870, 2648, 2871
 827, 2894, 2875, 2844, 2871
 828, 2894, 2648, 2842,  615
 829, 2894,  610, 2842, 2704
 830, 2843,  777, 2842,  776
 831,  614, 2842,  776, 2845
 832, 2855,  698,  705,  697
 833, 2844, 2721,  882,  895
 834, 2651, 2653, 2647,  622
 835, 2894, 2690, 2871, 2703
 836, 2729, 2883, 2656, 2657
 837, 2894, 2885, 2703, 2871
 838, 2649, 2885,  617,  616
 839, 2649, 2885, 2654,  617
 840, 2714, 2663,  886,  899
 841, 2662,  791, 2665,  750
 842, 2828,   83,  634,  813
 843, 2662, 2873, 2881, 2847
 844, 2881, 2873,  734, 2847
 845, 2881,  735, 2847,  734
 846, 2881,  735, 2876, 2847
 847, 2881, 2876, 2663, 2847
 848, 2887, 2785, 2743,  889
 849,  876, 2887,  875,  889
 850, 2743,  889,  875, 2887
 851, 2785, 2802, 2682, 2743
 852, 2837,  665,  664,  659
 853,  120,  755,  888, 2784
 854, 2787, 2789,  806, 2786
 855, 2882,   42, 2731,  602
 856, 2732,  747, 2797,  742
 857, 2731,   42,  747,   43
 858, 2862,  110,    2,  748
 859, 2862,  748,    2,   43
 860, 2728, 2731,  602, 2730
 861, 2882, 2731, 2730,  602
 862, 2862,  814,   44,  110
 863, 2752, 2759, 2855, 2756
 864, 2756, 2735,  704,  703
 865, 2734, 2735, 2756,  703
 866, 2698,  847, 2826,  860
 867, 2863, 2893, 2770,  681
 868, 2789, 2699, 2698,  804
 869, 2699,  827,  804,  806
 870, 2869, 2786, 2693,  737
 871, 2699, 2697, 2826, 2698
 872, 2801,  721,  720,  715
 873, 2699, 2786, 2698, 2826
 874, 2846, 2664, 2875, 2687
 875, 2894, 2842, 2648, 2844
 876, 2875, 2690, 2871, 2894
 877, 2894, 2875, 2690, 2704
 878, 2875, 2871, 2687,  884
 879, 2894, 2844, 2648, 2871
 880, 2677, 2669, 2683, 2685
 881, 2874, 2677, 2680, 2832
 882, 2683, 2765, 2681, 2678
 883, 2803,  646, 2818,  645
 884,  723,  105, 2701, 2854
 885, 2669, 2670, 2667, 2676
 886, 2667, 2794,  646,  647
 887, 2894, 2842, 2844, 2875
 888, 2846, 2872,  788, 2661
 889, 2842, 2704,  609,  778
 890, 2872,  778, 2661, 2704
 891, 2846,  897,  750,  129
 892, 2846,  749,  897,  129
 893, 2702, 2846, 2661, 2687
 894, 2717, 2721, 2650, 2720
 895, 2726, 2654, 2655, 2657
 896, 2726, 2870,  870, 2871
 897, 2844, 2721, 2870,  882
 898, 2870, 2871,  883,  870
 899, 2669, 2668, 2679, 2681
 900, 2817, 2668,  865,  866
 901, 2683, 2678, 2831, 2765
 902, 2821, 2760, 2788, 2766
 903,  852, 2817, 2815, 2681
 904, 2815, 2764,  650, 2813
 905, 2722, 2723, 2654, 2646
 906, 2703, 2885, 2655, 2871
 907, 2722, 2657, 2654, 2723
 908, 2654,  618,  612, 2722
 909, 2654, 2653,  622,  623
 910, 2722,  612, 2724,  613
 911, 2654,  618, 2646,  623
 912, 2764, 2813,  649,  650
 913, 2815, 2884, 2764, 2765
 914, 2815,  852, 2681, 2765
 915, 2818, 2815,  650, 2812
 916,  654, 2764, 2890, 2813
 917, 2764, 2813,  654,  649
 918, 2890, 2764,  801,  841
 919, 2884, 2764, 2765,  811
 920, 2764, 2765,  137,  840
 921, 2816,  835, 2700,  793
 922, 2816, 2700,  835,  836
 923,  141,  142,  836, 2816
 924, 2816,  792,  141,  793
 925, 2734, 2737, 2750, 2735
 926, 2700,  793,  832, 2816
 927,  807, 2700,  793,  832
 928, 2660,  739,  744, 2658
 929, 2846,  897,  898,  750
 930,  599, 2661,  604, 2692
 931, 2661,  604, 2692, 2704
 932, 2872,  788, 2661,  778
 933, 2659, 2661,  599, 2660
 934, 2661, 2659,  783, 2658
 935, 2726, 2649, 2655, 2654
 936, 2653, 2654, 2723, 2646
 937, 2653, 2726, 2723, 2654
 938, 2651, 2649, 2654,  622
 939, 2653, 2723,  856, 2838
 940, 2726,  856, 2723,  857
 941, 2649, 2648, 2870, 2871
 942, 2651, 2652, 2653, 2773
 943, 2655, 2885, 2649, 2871
 944, 2726, 2870,  869,  870
 945, 2726,  869, 2870, 2773
 946, 2726, 2655,  870,  857
 947, 2745, 2748,   76,  669
 948, 2745, 2836, 2749, 2746
 949,  633,  628, 2749, 2645
 950, 2748,  815,   50,  817
 951, 2748,  817, 2645,  815
 952, 2732, 2790, 2693, 2696
 953, 2747, 2645, 2749, 2647
 954, 2727, 2747, 2834, 2808
 955, 2747, 2644, 2647, 2838
 956, 2643,   48,  822,   49
 957, 2710, 2711,  887,  874
 958, 2862,  603,   43,   44
 959, 2662,  899, 2853,    9
 960, 2662,  750,  898,  130
 961, 2814,  853,  867,  866
 962, 2878, 2712, 2710, 2711
 963, 2768, 2710, 2714,  886
 964, 2882,   41,  602,  601
 965, 2853,  899,  119,    9
 966,  729,  724, 2873, 2881
 967, 2707,  784,  763,  761
 968, 2853,  899,  887,  119
 969, 2809,  772,   56,   75
 970, 2805, 2809, 2811,  673
 971, 2809, 2811,  673,   55
 972, 2877, 2775, 2776, 2868
 973, 2809,  673,    4,   55
 974, 2717, 2716, 2719, 2805
 975, 2715, 2720, 2719,  624
 976, 2717, 2808, 2652, 2773
 977, 2879,  728,  722,  723
 978, 2810, 2804, 2719, 2811
 979, 2715, 2719, 2717, 2716
 980, 2861, 2836, 2804,  671
 981, 2650,  626, 2810,  625
 982, 2719,  624, 2720,  625
 983, 2894, 2703, 2885,  611
 984, 2841, 2842,  615,  614
 985, 2875, 2687, 2690, 2704
 986, 2691, 2689, 2690, 2703
 987, 2806,  666, 2849,  661
 988, 2806, 2775,  667,  662
 989, 2864, 2888, 2776, 2868
 990, 2808, 2804, 2836, 2849
 991, 2717, 2808, 2806, 2804
 992, 2848, 2834, 2890, 2837
 993, 2722, 2724, 2725,  816
 994, 2644, 2723,  843,  798
 995,  623, 2653,  622, 2647
 996, 2643, 2646, 2644,  822
 997, 2643, 2647,  623,  628
 998, 2646,  823,  822,   48
 999,   48, 2646,  618,  623
1000, 2722,  823, 2646,  618
1001, 2889, 2774, 2867, 2877
1002, 2775,  662,  668,  667
1003, 2775,   74,  771,  772
1004, 2889, 2877,  770,  753
1005, 2807, 2888,  880, 2776
1006, 2864,  657, 2868,  662
1007, 2717, 2650, 2721, 2773
1008, 2754,  722,  721,  716
1009, 2760, 2796, 2673, 2763
1010, 2762, 2887, 2760, 2796
1011, 2679, 2668, 2673,  865
1012, 2760,  864, 2673,  877
1013, 2666,  878, 2673, 2668
1014, 2849, 2837,  660,  665
1015, 2849, 2837,  665, 2836
1016,  871, 2655, 2686,  858
1017, 2749, 2727, 2647, 2652
1018, 2849,  660, 2837, 2891
1019, 2864, 2848, 2891, 2849
1020, 2747, 2727, 2749, 2808
1021, 2680, 2822,  837,  838
1022, 2855, 2680, 2824, 2822
1023, 2680,  795,  139, 2757
1024, 2855, 2824,  698, 2759
1025, 2734,   97,  702,   96
1026, 2821, 2760,  863,  864
1027, 2697,   10,  805,  803
1028, 2821, 2823, 2680, 2824
1029, 2756, 2759,  697, 2735
1030,  704,  821,   95,  820
1031, 2821, 2822, 2759, 2766
1032, 2755,  837, 2822, 2856
1033, 2680, 2832,  818, 2874
1034, 2821, 2822, 2766, 2824
1035,  820,  795, 2855, 2755
1036, 2752, 2756, 2735, 2759
1037, 2755, 2757, 2680,  837
1038, 2816,  792, 2750,  836
1039, 2766,  699, 2823, 2824
1040, 2680, 2824, 2874,  818
1041, 2672, 2793,  686, 2763
1042, 2781, 2666, 2783, 2782
1043, 2672, 2671,  774, 2782
1044, 2777, 2667,  648, 2780
1045, 2667, 2794, 2803,  646
1046, 2781,  751, 2671,  785
1047, 2671,  774, 2782,  785
1048, 2671,  767,  768,   69
1049,   69, 2671,  638,  643
1050, 2708,  714,  709,  715
1051, 2677, 2827, 2832, 2830
1052, 2683,  645, 2803, 2818
1053, 2683, 2681, 2815, 2818
1054, 2680,  799, 2678,  838
1055, 2685, 2684, 2676, 2866
1056, 2684,  694, 2866,  701
1057, 2673, 2670, 2669, 2674
1058, 2777, 2671,  751,  768
1059, 2670, 2667, 2676,  642
1060, 2675, 2865, 2676, 2674
1061, 2685,  635, 2829, 2833
1062, 2890,  654,  655, 2835
1063, 2891, 2890, 2835, 2837
1064,  801,  654, 2764, 2890
1065,  649, 2764,   80,  654
1066, 2761,  690, 2759, 2751
1067, 2761, 2682,  684,  683
1068, 2758, 2762, 2761, 2760
1069, 2791, 2796, 2795, 2887
1070, 2791, 2682, 2762, 2887
1071, 2682, 2802,  683, 2744
1072, 2682, 2743, 2887, 2785
1073, 2795, 2785,  889,  755
1074, 2785, 2682, 2802,  781
1075, 2682, 2802,  781,  676
1076, 2669, 2679, 2788, 2823
1077, 2881,  734, 2873,  729
1078, 2873,  763,  724,  115
1079,  724, 2873, 2881, 2714
1080, 2873,  114,  763,  115
1081, 2873,  791, 2665, 2662
1082, 2662, 2881, 2663, 2847
1083, 2677, 2831, 2678, 2832
1084, 2685, 2866, 2676,  636
1085,   92,  818,  706,   93
1086, 2833,   63, 2828,  708
1087, 2866, 2833, 2830,  701
1088, 2833,  635,   63,   64
1089, 2866,  635, 2833,   64
1090, 2863,  682, 2893,  681
1091, 2863, 2802, 2893,  682
1092,  608, 2724,  613,  824
1093, 2863,  681, 2770,  674
1094,  789, 2802, 2840,  786
1095, 2769, 2863, 2770,  674
1096, 2863, 2802,  675,  786
1097, 2678,  799,  797, 2765
1098, 2823, 2874, 2677, 2680
1099, 2821, 2679, 2788, 2673
1100, 2765,  138,  797,  137
1101, 2683, 2803, 2681, 2818
1102, 2884,   81,  649, 2764
1103, 2814, 2890,  854,  841
1104, 2765,  840,  839,  138
1105, 2815, 2765,  853,  852
1106, 2679, 2765,  852,  839
1107, 2812, 2818, 2815, 2817
1108, 2761, 2744, 2857, 2887
1109, 2791, 2682,  773,  677
1110, 2857, 2887,  875,  876
1111, 2760,  876, 2796, 2887
1112, 2702, 2847,  740,  739
1113, 2702,  740, 2705,  745
1114, 2691, 2694, 2688, 2689
1115, 2688, 2660, 2705, 2692
1116, 2705, 2694,  741,  740
1117, 2694, 2876,  735, 2847
1118, 2847, 2876, 2663, 2694
1119, 2870, 2773,  882, 2721
1120, 2838, 2747, 2834, 2727
1121, 2727, 2838,  856,  855
1122, 2650, 2720,  620,  625
1123, 2894, 2649, 2885, 2871
1124, 2650, 2652, 2810,  626
1125, 2661, 2704,  778,  604
1126,  745,  739,  744, 2660
1127, 2664, 2687, 2702, 2694
1128, 2693,  741, 2694,  736
1129,  821,   96,  703,   95
1130, 2869,  731, 2876, 2767
1131, 2767, 2876, 2881,  730
1132, 2691, 2705, 2797, 2692
1133, 2691, 2692, 2688, 2705
1134, 2882, 2858, 2797,  746
1135, 2882, 2731, 2797, 2730
1136, 2693,  742, 2797,  741
1137, 2691, 2797, 2732, 2730
1138, 2882,  602, 2730,  601
1139, 2882, 2731,  747, 2797
1140, 2759, 2751,  690,  697
1141, 2822, 2824, 2759, 2766
1142, 2761, 2744, 2682,  683
1143, 2761, 2751, 2857, 2744
1144, 2857, 2743, 2742,  875
1145, 2750, 2735, 2752, 2756
1146, 2710,  720,  725,  719
1147,  724,  115, 2707,  116
1148, 2702, 2705, 2660,  745
1149, 2858,  600, 2660,   40
1150, 2858,   40, 2660,  745
1151, 2858,  600, 2692, 2660
1152, 2858, 2730, 2692,  601
1153, 2882, 2730, 2858,  601
1154, 2894,  616, 2649, 2648
1155, 2686, 2883, 2656, 2729
1156,  898,  750,  897,  130
1157, 2690, 2687, 2871, 2689
1158, 2650,  625, 2810, 2720
1159, 2844, 2870, 2871,  883
1160, 2651, 2870, 2650, 2773
1161, 2821, 2824, 2680, 2822
1162, 2684, 2674,  694,  693
1163, 2827, 2832,  707,  831
1164, 2687, 2875, 2690, 2871
1165, 2827, 2832,  831,  825
1166, 2677, 2685, 2830, 2684
1167, 2678,  825, 2831,  812
1168, 2760,  864,  877,  863
1169,  786, 2802,  675,  781
1170, 2743, 2802, 2682, 2744
1171, 2802, 2744, 2893,  682
1172, 2802, 2744,  682,  683
1173, 2744, 2743, 2887, 2682
1174, 2769,  118,  709,  762
1175,  675,  781,   85,  786
1176, 2659,  111,  744,   39
1177, 2672,  767, 2671,  638
1178, 2670, 2671,  643,  638
1179, 2671,  768,  767,  785
1180, 2792,  759, 2782,  779
1181, 2781,  785, 2782,  759
1182, 2670, 2667,  648, 2777
1183, 2672, 2674,  686,  687
1184, 2672,  774, 2671,  767
1185, 2842,  776,  777,  614
1186, 2841,  620, 2720,  619
1187, 2841,  615, 2648,  620
1188, 2715,  756, 2845,  775
1189, 2715, 2845,  624,  775
1190, 2845, 2720,  624,  619
1191, 2845,  776,   58,  775
1192, 2845,  776,  619,   58
1193, 2850, 2819, 2852, 2864
1194, 2741, 2802, 2744, 2893
1195, 2785, 2743,  888, 2784
1196, 2857, 2887, 2743,  875
1197, 2752, 2857,  863, 2759
1198, 2743, 2784, 2711,  888
1199,  810,   78,   79,  659
1200,  124, 2778, 2851,  892
1201, 2778,  769,  124,  758
1202, 2852, 2778,  653, 2820
1203, 2850, 2888, 2851,  893
1204, 2667, 2803, 2794, 2668
1205, 2777, 2778,  648,  769
1206,  609,  778,  604,   61
1207,  653,  758,  769, 2778
1208, 2851,  770, 2868,  658
1209, 2778, 2794, 2820, 2780
1210, 2778, 2851,  658,  758
1211, 2852,  653, 2778,  658
1212, 2791, 2887, 2762, 2796
1213, 2762, 2682,  677,  684
1214, 2791, 2793, 2762,  678
1215, 2795, 2887, 2796,  889
1216, 2792, 2783,  759,  890
1217, 2795,  755,  889,  121
1218, 2777, 2671, 2670, 2666
1219, 2690, 2703,  611,  606
1220, 2690, 2692, 2703,  606
1221, 2722, 2657, 2723, 2725
1222, 2844, 2871, 2875,  883
1223, 2875, 2846, 2687, 2704
1224, 2690,  605, 2704, 2692
1225, 2688, 2690, 2704, 2692
1226, 2658, 2665,  739,  765
1227, 2881,  730, 2876,  735
1228,  760, 2714,  763, 2853
1229, 2693, 2876, 2869,  736
1230, 2767,  873, 2663,  872
1231, 2875,  897,  883,  884
1232, 2705, 2797, 2692, 2858
1233, 2694, 2876,  736,  735
1234, 2760,  864, 2821, 2673
1235, 2679, 2673,  864,  865
1236,  819,  706,   93,  705
1237, 2832, 2874,  707,  818
1238, 2755, 2680, 2822,  837
1239, 2821, 2680,  851, 2822
1240, 2827,  825,  831,  813
1241,   92,  831,  707,  818
1242, 2823, 2766,  700,  699
1243, 2824, 2766,  699,  698
1244,  706,  818,   92,  707
1245, 2790, 2786, 2772, 2698
1246, 2790,  846, 2698,  859
1247, 2786, 2826,  733,  732
1248,  805,  728,  106,  107
1249, 2786,  732, 2698, 2826
1250, 2724, 2798,  796,  824
1251, 2790, 2798,  845, 2883
1252, 2733,  109,  814,  110
1253, 2649, 2650, 2870, 2648
1254, 2715,  624, 2716,  787
1255, 2749, 2859, 2746, 2836
1256, 2650,  620, 2648,  621
1257, 2841, 2845,  619, 2720
1258, 2695,  872, 2663,  885
1259, 2663, 2664,  885,  898
1260, 2662, 2665,  898,  750
1261, 2663, 2694, 2664, 2847
1262, 2768,  730, 2881,  725
1263, 2767, 2695, 2876, 2869
1264, 2714,  725, 2881,  724
1265, 2695, 2696, 2772,  872
1266, 2702,  739, 2665, 2847
1267, 2732, 2686, 2703, 2729
1268, 2691, 2732, 2693, 2696
1269, 2705, 2858,  745,  746
1270, 2691, 2730, 2703, 2692
1271, 2836, 2837, 2745, 2808
1272, 2814, 2764, 2890,  841
1273, 2835, 2892, 2890,  810
1274, 2834, 2835,  794, 2892
1275, 2878,  726,  720,  721
1276, 2747, 2835,  809,  794
1277, 2814, 2891, 2890, 2813
1278, 2842,  615,  609,  610
1279, 2740, 2857, 2743, 2742
1280, 2743, 2711, 2801, 2742
1281, 2682, 2802,  676,  683
1282, 2744,  690, 2751,  689
1283, 2740,  862, 2752, 2857
1284, 2741, 2740, 2754, 2713
1285, 2709, 2744,  689, 2893
1286, 2761, 2759, 2857, 2751
1287, 2884,  649,  644,  650
1288, 2894,  610, 2690,  611
1289, 2894, 2842,  610,  615
1290, 2871,  871, 2689,  884
1291, 2661,  790,  604,  778
1292, 2872,  749,  778,  777
1293, 2842, 2704,  610,  609
1294,  844, 2883,  796, 2725
1295, 2706,  824,  830,  829
1296, 2724, 2883, 2725,  796
1297, 2798, 2883,  796,  845
1298, 2865,  694, 2674,  687
1299, 2670, 2675,  638,  637
1300, 2673, 2763, 2674, 2788
1301, 2828, 2827,  634, 2833
1302,  642,  641, 2667, 2676
1303, 2674,  686,  693, 2763
1304, 2685, 2676,  641,  636
1305, 2857,  875, 2742,  862
1306, 2740, 2744, 2857, 2751
1307, 2761, 2744,  683,  690
1308, 2760,  877, 2796,  876
1309, 2741, 2863, 2840, 2802
1310, 2745, 2746, 2748,  669
1311, 2799, 2709, 2800, 2713
1312, 2747, 2644,  828, 2645
1313, 2726, 2773, 2651, 2653
1314, 2807, 2773,  881,  868
1315, 2653, 2726, 2773, 2727
1316, 2653, 2652, 2727, 2773
1317,  628, 2749, 2645, 2647
1318, 2749, 2859,  627,  632
1319, 2755,  795, 2855, 2680
1320, 2755, 2855, 2822, 2680
1321, 2736,  695, 2709, 2735
1322, 2750, 2738,  832, 2700
1323, 2756, 2735,  697,  704
1324, 2735, 2751,  697,  696
1325,  704, 2855,  820,  705
1326, 2734,  826,   97,  833
1327, 2734, 2738, 2736,  702
1328, 2723,  857,  856,  843
1329, 2651, 2870, 2726, 2649
1330, 2725,  844,  798,  133
1331, 2725,  796,  844,  133
1332,   88, 2793,  679,  779
1333, 2722, 2646,  823,  798
1334, 2722,  823,  816,  798
1335, 2708, 2801, 2712,  715
1336, 2801, 2754,  721,  716
1337, 2878, 2801,  721,  720
1338, 2801,  720, 2712,  715
1339, 2713, 2708, 2801, 2741
1340, 2878, 2801, 2712, 2711
1341, 2743, 2712, 2801, 2711
1342, 2657, 2729, 2655, 2656
1343, 2733,  742,  748,  747
1344, 2688, 2702, 2660, 2661
1345, 2730,  606, 2692,  601
1346, 2728, 2729,  607,  608
1347, 2730, 2703,  606,  607
1348, 2750, 2700, 2816,  836
1349, 2700, 2753,  848,  849
1350, 2753, 2825, 2700,  848
1351, 2700,  835, 2701,  793
1352, 2739, 2700, 2880, 2701
1353,  718, 2739, 2701,  807
1354, 2739, 2738,  807,  718
1355, 2737, 2739, 2753, 2754
1356, 2759, 2735, 2751,  697
1357, 2834, 2838,  855,  842
1358, 2764,   81,  649,   80
1359, 2848,  854, 2890,  855
1360, 2834, 2890, 2892,  842
1361, 2890, 2892,  801,  810
1362, 2892,  841,  801,  136
1363, 2892,  794,  135,  136
1364, 2892,  794,  842,  135
1365, 2734, 2750, 2738,  832
1366, 2880, 2753, 2878, 2886
1367, 2752,  862, 2753,  849
1368, 2886, 2753, 2742,  862
1369, 2713, 2740, 2754, 2737
1370, 2873,  114,  734,  113
1371, 2752, 2759, 2735, 2751
1372, 2821,  863, 2760, 2759
1373,  848, 2886, 2753, 2825
1374, 2740, 2735, 2709, 2751
1375, 2739, 2880,  722,  723
1376, 2825,  835, 2700,  848
1377, 2750, 2700,  849, 2753
1378,  714, 2708, 2840, 2712
1379, 2878, 2886, 2771, 2880
1380, 2886, 2768, 2771,  873
1381, 2880, 2825, 2700, 2753
1382, 2880, 2701,  723, 2739
1383,  813, 2828,   91,  831
1384, 2827, 2830,  708,  707
1385, 2833,  634, 2828,   63
1386, 2828,    5,  708,   63
1387, 2827,  813, 2828,  634
1388, 2828,    5,   83,   91
1389, 2813, 2890,  654,  655
1390, 2812, 2852,  652, 2820
1391, 2718, 2776, 2807,  881
1392, 2812, 2818,  651,  650
1393, 2814,  840, 2764,  841
1394, 2814, 2819,  866,  867
1395, 2864, 2819, 2814,  867
1396, 2891,  661,  655,  656
1397, 2834, 2835, 2890, 2837
1398,  835,  793, 2816,  142
1399, 2735,  704,  696,  697
1400, 2740, 2741, 2754, 2742
1401, 2701,  803, 2854,  834
1402, 2879,  723, 2854,  728
1403, 2701, 2825, 2854,  835
1404, 2752,  850,  849, 2856
1405, 2841, 2870, 2650, 2648
1406, 2716,  772, 2775,  771
1407, 2719, 2811, 2809,  629
1408, 2716,  782,  787,  772
1409, 2804, 2849,  666, 2836
1410, 2805,  772,  673,  668
1411, 2860,  672, 2811,   54
1412, 2811,  672,   55,   54
1413, 2809, 2811,   55,  629
1414, 2852, 2868,  657,  658
1415, 2819, 2864, 2850,  880
1416, 2791,  677,   87,  678
1417,  656,  657, 2812, 2864
1418, 2812,  652,  657,  651
1419, 2850, 2820,  879, 2780
1420, 2854,  728,  723,  106
1421, 2792,  779,  780,  754
1422, 2777, 2666, 2781, 2671
1423, 2673, 2783, 2796,  877
1424, 2871, 2687,  884, 2689
1425, 2870, 2726, 2773, 2651
1426, 2844,  882, 2870,  883
1427, 2845,  614,  619,  776
1428, 2841,  614,  620,  619
1429, 2860, 2810,  630, 2811
1430, 2717, 2775, 2806, 2776
1431, 2758,  684,  685,  692
1432, 2766,  693,  700,  692
1433, 2785,  781, 2784,  755
1434, 2874,  707,  699,  700
1435, 2752, 2822,  850, 2856
1436, 2855,  697, 2759,  698
1437, 2766,  693, 2763, 2788
1438, 2758, 2766, 2760, 2759
1439, 2821,  850,  864,  863
1440, 2808, 2837, 2745, 2747
1441, 2649, 2726, 2651, 2654
1442, 2657,  857, 2723,  844
1443,  897,  749,  896,  129
1444, 2718, 2721,  895,  882
1445, 2844,  896,  895,  882
1446, 2804,  666,  667,  672
1447, 2852, 2864,  657, 2868
1448, 2849,  666,  660,  661
1449, 2651, 2649, 2650, 2870
1450, 2860, 2804,  672,  671
1451, 2718, 2773, 2717, 2721
1452, 2849, 2891,  661,  660
1453, 2672,  680,  687,  679
1454, 2745,  664, 2837,  665
1455, 2693, 2772, 2786, 2869
1456, 2663,  873,  886,  872
1457, 2787,  742,  737,  743
1458, 2787, 2732, 2693,  742
1459, 2695, 2663, 2664,  885
1460, 2722, 2654, 2724,  612
1461, 2693, 2869,  737,  736
1462, 2772,  860,  873,  859
1463, 2772, 2698,  860,  859
1464, 2668, 2817, 2818, 2794
1465, 2677, 2685, 2829, 2830
1466, 2765,  853,  839,  840
1467, 2815, 2817, 2818, 2681
1468,  867, 2814, 2864, 2848
1469, 2884,  650, 2764,  649
1470, 2812,  656,  650,  651
1471, 2869,  736,  731,  737
1472, 2815,  853, 2765,  840
1473, 2770, 2800,  710,  101
1474, 2708, 2770,  710,  709
1475, 2770, 2800,  101,  681
1476, 2770,  681, 2893, 2800
1477,  738,  743,  109,  806
1478, 2745, 2808, 2749, 2836
1479, 2729, 2885, 2655, 2703
1480, 2644,  822,  828,  817
1481, 2647,  628,  622,  623
1482, 2644,  798,  843,  802
1483,  842, 2747, 2834, 2838
1484,  802, 2838, 2747,  842
1485, 2709, 2893,  688, 2800
1486, 2878, 2754, 2801, 2742
1487, 2839, 2784,  757, 2711
1488, 2802, 2741, 2743, 2784
1489, 2707, 2712, 2710,  719
1490, 2802, 2784,  781,  789
1491, 2840, 2802,  789, 2784
1492, 2841,  620,  614,  615
1493, 2707,  763, 2714, 2853
1494, 2707, 2711, 2712, 2839
1495, 2784, 2741, 2743, 2712
1496, 2710, 2712,  720,  719
1497, 2878, 2710, 2712,  720
1498, 2879, 2826,  728, 2854
1499, 2771, 2826, 2698,  732
1500, 2826,  728, 2854,  805
1501, 2699, 2786,  738,  806
1502,  805,  803, 2854, 2826
1503, 2699,  827,  805,  804
1504, 2699, 2786, 2826,  733
1505, 2688, 2692, 2661, 2660
1506, 2730, 2703, 2692,  606
1507, 2724,  824,  796,  816
1508, 2704, 2846, 2687, 2661
1509, 2691, 2693, 2797, 2694
1510, 2797, 2858, 2730, 2692
1511, 2690, 2692,  606,  605
1512, 2692, 2660,  600,  599
1513, 2875, 2664,  884, 2687
1514, 2728,  602, 2731,  603
1515, 2666, 2673, 2783, 2782
1516, 2669, 2803, 2668, 2681
1517, 2702, 2694,  740, 2847
1518, 2858,  601, 2692,  600
1519, 2690, 2689, 2871, 2703
1520, 2885,  611,  612,  617
1521, 2894, 2690,  610, 2704
1522, 2776, 2888,  880, 2867
1523,  844, 2656, 2657,  857
1524, 2691, 2703, 2686, 2689
1525,  803, 2697, 2826,  805
1526, 2697,  803,  847,   10
1527, 2825,  848,  860,  847
1528,  847, 2697, 2826,  803
1529, 2854,  106,  805,  728
1530, 2826,  805,  733,  728
1531, 2701,  834,  793,  803
1532, 2879,  727, 2880,  722
1533, 2879,  727,  733,  732
1534, 2695, 2687, 2694, 2689
1535, 2846, 2875, 2664,  897
1536, 2665,  750,  791,  765
1537, 2663,  886,  899,  885
1538, 2767, 2695, 2663, 2876
1539, 2875,  884, 2664,  897
1540, 2664, 2687, 2695,  884
1541, 2846, 2664, 2665,  898
1542, 2663,  898,  885,  899
1543, 2843, 2872,  777,  749
1544, 2691, 2688, 2694, 2705
1545, 2693, 2797, 2694,  741
1546, 2844,  883, 2875,  896
1547, 2841, 2842, 2844, 2648
1548, 2894, 2842, 2875, 2704
1549, 2777, 2779, 2778,  769
1550, 2850, 2888,  893,  880
1551, 2781, 2783, 2666,  891
1552, 2794,  647,  653,  652
1553, 2850, 2780,  879,  892
1554, 2667,  641,  647,  646
1555, 2666, 2777, 2667, 2670
1556, 2790,  845, 2789,  846
1557, 2728, 2729,  608, 2706
1558, 2693, 2876, 2695, 2869
1559, 2858,  745,   41,   40
1560, 2660,   39,  600,  599
1561, 2660,  600,   39,   40
1562, 2702, 2664, 2694, 2847
1563, 2672, 2675,  687,  680
1564, 2865,   65,  694,  687
1565, 2865,  687,   66,   65
1566, 2671,  785,  767,  774
1567, 2667,  646, 2803,  641
1568, 2777, 2781, 2779,  751
1569, 2843,  752,  749,  777
1570, 2672,  687,  686,  679
1571, 2801, 2713, 2754,  716
1572, 2771,  726, 2880,  727
1573, 2709, 2751, 2735,  696
1574, 2734,  703,  702,  695
1575, 2863, 2802,  682,  675
1576, 2857,  876,  862,  863
1577, 2893, 2800,  681,  688
1578, 2741, 2742, 2743, 2801
1579, 2740, 2753, 2742, 2754
1580, 2785, 2802, 2743, 2784
1581, 2821, 2752, 2759, 2822
1582, 2802,  786,  789,  781
1583, 2768, 2663, 2714, 2881
1584, 2708, 2800,  711,  710
1585, 2752, 2857, 2759, 2751
1586, 2857,  862,  876,  875
1587, 2760, 2887, 2857,  876
1588, 2759, 2766,  698,  691
1589, 2878, 2768, 2771, 2886
1590, 2878, 2801, 2754,  721
1591, 2739, 2701,  723,  718
1592, 2708, 2713,  716,  711
1593, 2708,  716, 2801,  715
1594, 2878, 2711,  874, 2742
1595, 2750, 2855, 2752, 2856
1596, 2738,  808,  713,  826
1597, 2742,  875,  874,  861
1598, 2799,  712, 2713,  711
1599, 2800,  688,  100,  101
1600, 2659,    1,  599,   62
1601, 2797,  746,  741,  747
1602, 2799,  711, 2800,  100
1603, 2709,  688,  696,  695
1604,  696,  695,  703, 2735
1605, 2878, 2801, 2711, 2742
1606, 2770,  102,  101,  710
1607,  714,  762,  764, 2840
1608, 2741, 2840, 2784, 2802
1609, 2708, 2770, 2800,  710
1610, 2830,  708,  707,  700
1611, 2695,  871, 2696,  872
1612, 2894,  616, 2648,  615
1613, 2694,  735,  736,  741
1614, 2846,  750, 2665,  788
1615, 2693,  742,  736,  737
1616, 2873,  791,  113,  734
1617, 2686, 2696, 2883, 2732
1618, 2894,  611, 2690, 2703
1619, 2746,  633,   51,  632
1620, 2695,  885, 2664,  884
1621, 2868,  658,  663,  657
1622, 2873,  115,  729,  114
1623,  676,   86,   85,  781
1624, 2889,  126,  894,  753
1625, 2662,  898,    9,  130
1626, 2819,  879, 2820,  866
1627, 2864, 2807, 2776, 2888
1628, 2852, 2819, 2812, 2864
1629, 2864,  656,  662,  661
1630, 2862,   44,   43,    2
1631, 2718, 2774, 2776, 2867
1632, 2807,  881,  867,  868
1633, 2740, 2857, 2752, 2751
1634, 2750, 2856,  849,  836
1635, 2752, 2822, 2855, 2759
1636, 2687, 2695,  884, 2689
1637, 2680,  838,  837, 2757
1638, 2856,  837,  850,  836
1639, 2821,  851, 2679,  864
1640, 2767, 2869,  731,  732
1641, 2856,  850,  849,  836
1642, 2701,  835,  803,  793
1643, 2854,  105,  106,  723
1644, 2741, 2863, 2802, 2893
1645, 2661,  790,  766,  783
1646,   90,   67,  638,  680
1647, 2675,  687,  680,   66
1648, 2704,  778,  604,  609
1649, 2842, 2872,  778,  777
1650,  648, 2670,  643,  642
1651,  812,  639,  644,   82
1652,  809,  664,   78,  659
1653,  624, 2845,   58,  775
1654, 2659,    1,  111,   39
1655, 2885, 2654,  617,  612
1656, 2768,  861, 2886, 2878
1657, 2675,  637,   66,  638
1658, 2773,  882,  868,  869
1659, 2889,  770,  125,  753
1660,  712,  718, 2736, 2713
1661, 2845,  775,  756,  752
1662,  770,  663,  771, 2877
1663, 2735,  703,  696,  704
1664, 2715,  775,  782,  756
1665, 2878, 2880,  726,  721
1666, 2662, 2714, 2853,  899
1667, 2806,  661, 2864,  662
1668, 2878, 2886, 2742,  861
1669, 2742,  862,  875,  861
1670, 2879, 2826,  733,  728
1671, 2878,  861, 2742,  874
1672, 2878, 2768,  861,  874
1673, 2738,  807,  718,  808
1674, 2711,  874,  888,  887
1675, 2761,  684,  691,  683
1676, 2755,  837, 2856,  836
1677, 2704,  604,  605,  610
1678, 2840,  762,  789,  786
1679, 2740, 2753,  862, 2742
1680, 2752,  849,  863,  862
1681, 2750,  849, 2752, 2753
1682, 2893, 2708, 2800, 2741
1683,  723, 2880,  722, 2879
1684,  845,  844, 2883,  796
1685, 2702, 2694, 2705,  740
1686, 2875, 2871,  884,  883
1687, 2744, 2893,  682,  689
1688, 2754,  716,  717,  722
1689, 2754, 2880, 2753, 2878
1690, 2806, 2804, 2849,  666
1691, 2886,  848,  862,  861
1692,  848,  862, 2753, 2886
1693, 2850,  879, 2819,  880
1694, 2838, 2647, 2747, 2727
1695, 2743,  888, 2711,  875
1696, 2660,  744,  745,   40
1697, 2660,   40,   39,  744
1698, 2784,  888,  120,  757
1699, 2893,  681,  682,  689
1700, 2784, 2711,  888,  757
1701, 2795,  781,  755,  773
1702, 2783,  877,  891,  890
1703, 2690,  606,  611,  605
1704,  116,  764,  719,  117
1705, 2880,  727,  721,  722
1706, 2858,  601,   40,   41
1707,  642, 2667,  648, 2670
1708,  648,   71,  769,  653
1709, 2653, 2644, 2723, 2838
1710, 2798,  800,  845,  132
1711, 2688, 2661, 2692, 2704
1712, 2704,  604, 2692,  605
1713, 2719, 2811,  629,  630
1714, 2846,  749, 2875,  897
1715,  128,  895,  752,  896
1716, 2718,  894,  881,  895
1717,  895,  127,  756,  894
1718, 2719, 2809,  624,  629
1719, 2877,  770,  753,  771
1720, 2877,  753, 2774,  771
1721, 2731,  603,  602,   42
1722, 2881,  729,  724,  730
1723, 2882,  602,   41,   42
1724, 2691, 2696, 2695, 2689
1725, 2852,  652,  653,  658
1726, 2778,  758,  658,  653
1727,  716, 2708, 2801, 2713
1728, 2889,  893,  894,  126
1729, 2777,  768,  751,  769
1730, 2782,  779,  759,  785
1731,  823,   47,   48,  618
1732, 2731,   43,  603,   42
1733,  891,  890,  123,  759
1734, 2667,  648,  647,  642
1735, 2673,  878, 2783,  877
1736, 2703,  612,  611,  606
1737,  779, 2793,  679,  774
1738, 2875,  897,  749,  896
1739, 2795, 2785, 2682, 2887
1740, 2796,  889,  890,  754
1741, 2690,  611,  610,  605
1742, 2682,  677,  684,  676
1743,  890,  754,  889,  122
1744, 2741, 2742, 2801, 2754
1745,  889, 2785, 2743,  888
1746, 2760, 2761, 2759, 2857
1747, 2785,  889,  755,  888
1748,  889,  121,  755,  888
1749, 2711,  887,  888,  757
1750, 2662, 2714, 2881, 2873
1751, 2878, 2711, 2710,  874
1752, 2767, 2876,  730,  731
1753, 2858,  746,   41,  745
1754, 2775,  668,  662,  663
1755,  776,   59,  777,  614
1756, 2758,  685, 2762, 2763
1757, 2707, 2853,  761,  763
1758, 2710,  725,  724,  719
1759,  758,   71,   72,  653
1760,  888,  757,  887,  120
1761,  790,   61,   62,  604
1762, 2665,  734,  765,  791
1763, 2881,  730,  724,  725
1764, 2702, 2664, 2846, 2687
1765, 2772, 2693, 2786, 2790
1766, 2664,  898,  884,  885
1767, 2732, 2797, 2693,  742
1768, 2662,  898, 2663,  899
1769, 2768,  874, 2710,  886
1770,  783, 2658,  766, 2661
1771, 2695,  884,  871,  885
1772, 2882, 2858,   41,  601
1773, 2873, 2714,  763,  760
1774, 2871,  884,  870,  871
1775, 2704,  610,  609,  604
1776, 2842, 2875, 2704, 2872
1777, 2853,  119,  887,  761
1778, 2730,  602,  607,  601
1779, 2851, 2889, 2867, 2877
1780, 2728,  603,  608,  602
1781,  896, 2845,  895,  752
1782, 2661, 2692,  599, 2660
1783, 2870,  883,  882,  869
1784, 2771,  731,  726,  732
1785, 2773,  868,  882,  881
1786, 2888,  893,  880, 2867
1787,  609, 2842,   60,  614
1788, 2791,  773,  754,  780
1789, 2850,  879,  880,  893
1790, 2717, 2719, 2810, 2804
1791, 2766,  699,  692,  700
1792, 2672, 2673, 2763, 2674
1793, 2722,  613,  618,  612
1794,  830,  608,  603,   45
1795, 2874,  707,  706,  699
1796,  693,  692, 2763,  685
1797, 2683, 2818, 2815, 2884
1798, 2803,  645,  640,  646
1799, 2889, 2877, 2851,  770
1800, 2758, 2766,  691,  692
1801, 2692,  606,  600,  601
1802, 2672, 2674, 2763,  686
1803, 2673,  865, 2668,  878
1804, 2865,  637, 2676,  636
1805, 2648,  616,  621,  615
1806, 2824, 2874,  818,  706
1807, 2792, 2796,  890,  754
1808, 2724, 2657, 2729, 2885
1809, 2768,  730,  725,  731
1810, 2865, 2676, 2866,  636
1811, 2845,  895,  752,  756
1812, 2891,  655,  661,  660
1813, 2666, 2780,  891,  878
1814, 2795,  773, 2682,  781
1815, 2796,  889,  876,  890
1816,  844,  134,  843,  798
1817, 2840,  714, 2712,  764
1818, 2802,  675,  683,  682
1819, 2842,  614,  609,  615
1820, 2848,  867,  854,  868
1821, 2712,  720,  714,  715
1822, 2729,  607,  613,  612
1823,  824,   45,   46,  608
1824, 2743, 2712, 2711, 2784
1825, 2711,  874,  875,  888
1826, 2662,  750,  760,  791
1827, 2733,  110, 2862,  748
1828, 2710,  874,  887,  886
1829, 2825,  848,  847,  835
1830, 2767, 2771,  873, 2772
1831,  784, 2707,  764,  761
1832, 2650,  626,  625,  620
1833, 2664,  898,  897,  884
1834, 2853,  763,    9,  761
1835, 2839,  761, 2707,  887
1836, 2839,  761,  757,  764
1837, 2795, 2785, 2887,  889
1838, 2695,  871,  872,  885
1839,  886, 2663, 2768,  873
1840, 2790, 2696,  859, 2772
1841, 2879, 2825, 2880, 2771
1842,  777,  614,   59,   60
1843, 2696,  871,  858,  872
1844, 2772,  872,  859,  873
1845, 2847,  735,  740,  734
1846, 2808, 2804, 2859, 2836
1847, 2662, 2873,  791,  760
1848, 2841,  619, 2845,  614
1849, 2894,  615,  610,  616
1850, 2844,  883,  896,  882
1851, 2841, 2720, 2650, 2721
1852,  776,   59,  619,   58
1853,  858, 2883, 2656, 2686
1854, 2839, 2840, 2712,  764
1855, 2729,  612, 2885, 2703
1856, 2705,  745, 2858, 2660
1857, 2885, 2703,  612,  611
1858,  816,   46,   47,  613
1859, 2885,  616,  611,  617
1860, 2838,  856,  855,  842
1861, 2651,  621,  622,  627
1862, 2789,  800,  846,  845
1863, 2733, 2789,  829,  806
1864, 2774,  756,  894,  895
1865, 2864, 2848, 2807,  867
1866, 2726,  869, 2727,  856
1867, 2843,  752,  128,  749
1868,  756,  895,  752,  127
1869, 2848, 2727,  868,  855
1870, 2848, 2834,  855, 2890
1871, 2672,  686, 2793,  679
1872, 2877, 2776, 2775, 2774
1873, 2727,  868,  855,  869
1874, 2806,  661,  667,  666
1875,  650, 2891,  655,  656
1876, 2783, 2793, 2673, 2796
1877, 2864,  657,  662,  656
1878,  752, 2843,  896, 2845
1879, 2718,  894, 2774, 2867
1880,  880, 2776,  881, 2807
1881, 2715,  782, 2716, 2774
1882,  881, 2867,  880,  894
1883,  759,  891, 2783, 2781
1884, 2674, 2788, 2763,  693
1885,  775,   57,   58,  624
1886, 2820,  866, 2668, 2817
1887, 2814, 2817, 2815,  853
1888, 2649,  622,  616,  617
1889, 2851,  892,  893,  125
1890, 2870,  882, 2773,  869
1891, 2654,  623,  617,  618
1892, 2805, 2811,  672,  673
1893, 2667,  641,  642,  647
1894, 2818,  646,  651,  645
1895, 2648,  621,  620,  615
1896, 2758, 2761,  691, 2759
1897, 2727,  855,  856,  869
1898, 2835,  664,  809,  659
1899, 2779,  892,  124,  891
1900,  890,  123,  759,  122
1901,  799,  839, 2765, 2678
1902, 2694, 2847,  735,  740
1903, 2824, 2759, 2766,  698
1904, 2760, 2761, 2857, 2887
1905, 2857, 2743, 2887, 2744
1906, 2795,  755,  754,  773
1907, 2840,  762, 2863,  709
1908, 2709,  688, 2893,  689
1909, 2795,  121,  754,  755
1910, 2644,  802,  822,  798
1911, 2679,  852,  865,  851
1912, 2768,  873,  861,  874
1913, 2839, 2711,  757,  887
1914, 2693, 2695, 2876, 2694
1915, 2809,  624,  629,   57
1916, 2662,    9,  898,  899
1917, 2830,  707, 2832, 2874
1918, 2880,  727,  726,  721
1919, 2821,  864,  850,  851
1920, 2718,  894, 2867,  881
1921, 2880, 2754, 2739,  722
1922, 2794,  647,  652,  646
1923,  119,  757,  887,  761
1924, 2864, 2850,  880, 2888
1925, 2853,  761,    9,  119
1926, 2845,  756, 2721,  895
1927,   71,  653,  758,  769
1928, 2771,  873, 2772,  860
1929, 2871,  884,  883,  870
1930, 2809,   56,   55,    4
1931, 2696,  858,  859,  872
1932, 2878, 2710, 2768,  874
1933, 2650,  621,  626,  620
1934, 2790, 2789, 2698,  846
1935, 2729, 2730,  607, 2703
1936, 2790,  859,  858,  845
1937, 2698,  860,  859,  846
1938,  805,  733,  728,  107
1939, 2789,  845, 2798,  800
1940, 2824,  698,  699,  706
1941, 2804, 2719, 2811, 2805
1942, 2749,  633,  632,  627
1943, 2651,  626,  621,  627
1944, 2663,  885,  872,  886
1945, 2810,  631,  630,  625
1946, 2643,   49,  623,   48
1947, 2686, 2871, 2689, 2703
1948, 2726, 2773, 2727,  869
1949, 2749,  627,  628,  633
1950, 2732, 2798, 2790, 2883
1951, 2781,  785,  759,  751
1952, 2771,  732, 2879, 2826
1953, 2726,  857,  870,  856
1954, 2798, 2732, 2790, 2733
1955, 2722, 2725, 2723,  798
1956, 2867, 2868, 2888, 2851
1957, 2846,  129,  750,  749
1958, 2745,  664, 2835, 2837
1959, 2894, 2649, 2871, 2648
1960, 2647, 2646,  623, 2653
1961, 2809,   57,  629,   56
1962, 2655,  871,  870,  857
1963, 2809,    4,   75,   56
1964, 2771, 2772,  732, 2698
1965, 2848,  854,  855,  868
1966,  656, 2812,  650, 2891
1967, 2812, 2814, 2813, 2891
1968, 2653, 2647, 2644, 2838
1969, 2747, 2644, 2645, 2647
1970, 2814,  854,  853,  840
1971, 2806, 2804,  666,  667
1972, 2824,  706,  705,  698
1973, 2741, 2801, 2743, 2712
1974,  894,  756,  126,  127
1975, 2683,  645,  639,  640
1976, 2859,  626,  627,  632
1977, 2683,  645,  644,  639
1978, 2860, 2861,   53,  631
1979, 2859,  626,  632,  631
1980, 2666,  878, 2668, 2780
1981, 2679,  838,  852,  851
1982, 2860,   54,  630,   53
1983,  899,  886, 2714,  887
1984, 2677, 2823, 2669, 2684
1985, 2748,   51,    3,   76
1986, 2793, 2763,  685,  686
1987, 2824,  819,  706,  818
1988, 2665,  788,  750,  765
1989,  849,  848,  862, 2753
1990, 2685, 2676, 2803,  641
1991, 2668,  879,  865,  866
1992, 2649,  621, 2648,  616
1993,  685,  686, 2763,  693
1994, 2766,  692, 2763,  693
1995,   70,   71,  769,  648
1996,  889,  121,  122,  754
1997, 2861,  632,   52,  631
1998, 2708,  715,  710,  716
1999, 2886,  848,  861,  860
2000, 2673,  878,  864,  865
2001, 2830, 2833,  708,  701
2002, 2886,  873,  860,  861
2003, 2708, 2713,  711, 2800
2004, 2662,  130,  760,  750
2005,  897,  129,  130,  750
2006, 2698,  860,  846,  847
2007, 2861,   53,   52,  670
2008,  800,  846,  804, 2789
2009, 2786,  732,  738,  737
2010, 2798,  824,  829,  796
2011,  800,  132,  131,  846
2012, 2697, 2698,  846,  847
2013, 2746,   52,  669,  670
2014, 2673,  878,  877,  864
2015, 2877,  771, 2775,  663
2016, 2789,  800,  829,  806
2017, 2647,  628,  627,  622
2018, 2789,  800,  806,  804
2019, 2749, 2652, 2808, 2727
2020,  845,  132,  133,  796
2021, 2697,  131,  846,  804
2022, 2705,  741, 2797,  746
2023, 2755,  795,  792,  820
2024, 2808, 2849, 2836, 2837
2025, 2657, 2725, 2883,  844
2026,  850, 2822,  837, 2856
2027,  896,  129,  749,  128
2028, 2649,  616,  622,  621
2029, 2725,  798,  816,  796
2030, 2843,  896,  128,  752
2031, 2649, 2654,  622,  617
2032,  843,  798,  134,  802
2033,  707,   92,   91,  831
2034, 2883, 2656, 2657,  844
2035, 2835,  809,  794,  810
2036, 2855, 2756,  697,  704
2037, 2828,   63,  634,    5
2038,  813,   83,  634,  639
2039, 2747,  828,  802,  794
2040, 2814,  841,  854,  840
2041, 2813,  654,  649,  655
2042, 2745,   77,  664,  669
2043, 2828,  813,   91,   83
2044, 2828,   91,  708,    5
2045, 2835,  660,  654,  655
2046, 2834,  842, 2892,  794
2047, 2832,  818,  825,  799
2048, 2764,  811,   80,  801
2049, 2829, 2833,  635,  634
2050, 2892,  136,  810,  794
2051,  813,   83,  639,   82
2052, 2866,  701,  694,   64
2053, 2890,  854,  841,  855
2054, 2855,  704,  697,  705
2055, 2829,  640,  639,  634
2056, 2764,  801,  137,  811
2057, 2760,  876,  863,  877
2058,  801, 2764,  137,  841
2059, 2827,  708, 2830, 2833
2060, 2669, 2679, 2673, 2788
2061, 2833,   64,   63,  701
2062,  812, 2765,  811, 2884
2063, 2814, 2817,  853,  866
2064,  644, 2884,   81,  649
2065, 2678,  839,  838,  799
2066, 2765,  799,  797,  138
2067, 2765,  137,  840,  138
2068, 2865,  637,   65,   66
2069,  820, 2756,  704,  821
2070,  703,  821,   95,  704
2071, 2761, 2751, 2744,  690
2072, 2793, 2763, 2762,  685
2073, 2873,  113,  791,  114
2074, 2762,  684,  677,  685
2075, 2866,   65,   64,  694
2076, 2824, 2874,  706,  699
2077, 2677, 2874, 2830, 2832
2078, 2737, 2709, 2713, 2740
2079, 2755,  792, 2757,  837
2080, 2740, 2752, 2750, 2735
2081, 2670, 2676,  637,  642
2082, 2827, 2833, 2828,  708
2083,  736, 2869,  731, 2876
2084,   68,   67,  638,   90
2085,  677,   87,   86,  773
2086, 2678,  825,  797,  799
2087, 2679,  839,  852,  838
2088, 2755, 2750, 2855, 2756
2089, 2837, 2808, 2848, 2834
2090,  888,  755,  120,  121
2091, 2726, 2655,  857, 2657
2092,  131,  800,  846,  804
2093, 2739, 2754,  717,  722
2094, 2818,  650, 2815, 2884
2095,  138,  839, 2765,  799
2096, 2757,  140,  838,  837
2097,  680,  638, 2672, 2675
2098,  802,  842,  135,  843
2099, 2798,  829,  800,  796
2100,  796,  845,  844,  133
2101,   10,  835,  803,  847
2102, 2726, 2657, 2723, 2654
2103, 2755, 2855, 2856, 2822
2104, 2755, 2750, 2856, 2855
2105,  798,  133,  844,  134
2106, 2680,  795,  799,  139
2107,   90,   67,    6,   68
2108,  767,  638,   68,   69
2109,  135,  843,  134,  802
2110,  105, 2701, 2854,  834
2111,  140,  837,  792,  141
2112,  793,  835,  803,  142
2113, 2879, 2701, 2854,  723
2114, 2812, 2864, 2891,  656
2115, 2643,  623,   49,  628
2116, 2756,  704, 2855,  820
2117, 2745,  664,  670,  669
2118,  142,  793, 2816,  141
2119, 2757,  140,  837,  792
2120, 2646,  822,  823,  798
2121, 2679, 2765, 2681,  852
2122,  617, 2654,  618,  612
2123, 2881,  734,  729,  735
2124, 2892,  136,  135,  842
2125, 2776, 2868, 2888, 2867
2126, 2653, 2727, 2652, 2647
2127, 2758,  685, 2763,  692
2128, 2823, 2766,  693,  700
2129,  137,  841,  136,  801
2130,   82,  812,  639,  813
2131, 2670,  643,  637,  638
2132, 2876,  735,  730,  736
2133, 2676,  642,  636,  637
2134, 2734, 2750,  832,  821
2135, 2832,  825,  818,  831
2136, 2679,  851, 2680,  838
2137, 2765,  852,  839,  853
2138, 2811,  672,  673,   55
2139, 2680,  819,  818,  795
2140, 2824,  819,  705,  706
2141, 2855,  819,  820,  705
2142,  826,  713,  702,   98
2143, 2679,  865, 2681, 2668
2144,  826,    8,  103,   98
2145, 2816,  836,  141,  792
2146,  142,  835,  803,   10
2147, 2738,  832,  807,  808
2148, 2854,  803,  106,  834
2149, 2670,  642,  637,  643
2150,  767,   69, 2671,  638
2151, 2680,  795,  818,  799
2152,  768,  643,   69,   70
2153, 2700,  836,  849,  835
2154, 2886, 2771,  860,  873
2155, 2879,  727,  728,  733
2156, 2699,  827,  806,  738
2157, 2699, 2826,  805,  733
2158, 2699,  733,  827,  738
2159, 2765,  797,  811,  137
2160,  812,  644,   81,   82
2161, 2644, 2838,  802,  843
2162, 2724, 2798, 2883,  796
2163, 2686,  858, 2696,  871
2164, 2729,  612, 2703,  607
2165, 2869,  731,  732,  737
2166, 2798,  132,  796,  800
2167,   78,  659,  810,  809
2168, 2881,  735,  729,  730
2169, 2783,  891,  877,  878
2170, 2827, 2830,  707, 2832
2171, 2764,  137,  841,  840
2172, 2751,  689,  690,  697
2173,  634, 2829, 2827,  639
2174, 2831,  825,  813,  812
2175,  839,  838,  799,  139
2176, 2723,  844,  843,  798
2177, 2811,   54,  629,  630
2178, 2644,  822,  802,  828
2179, 2643,  817,  628,   49
2180, 2733,  814,  806,  829
2181, 2794, 2668, 2803, 2818
2182, 2794,  653,  647,  648
2183, 2852,  652,  658,  657
2184, 2790,  846,  859,  845
2185,  107,  733,  827,  805
2186,  768,   70, 2777,  643
2187, 2728, 2730,  602,  607
2188, 2732, 2731, 2730, 2797
2189, 2821,  850, 2752, 2822
2190, 2733, 2862,  110,  814
2191, 2733,  806,  109,  743
2192, 2780,  879,  892,  878
2193,  141,  836,  837,  792
2194, 2719,  624,  630,  629
2195, 2787, 2733,  743,  806
2196, 2768, 2710,  725, 2714
2197, 2701,  834,  105,  807
2198,  723, 2701,  105,  718
2199, 2884,  650,  644,  645
2200,  765,  113,  734,  739
2201, 2884,  812,  639,  644
2202, 2713, 2739, 2754,  717
2203,   80,  811, 2764,   81
2204,  807,  808,  104,  718
2205, 2700, 2738,  832,  807
2206, 2734,  703, 2756,  821
2207, 2738,  808,  718,  713
2208, 2654,  617,  623,  622
2209, 2734,  832,  833,  821
2210,  801,   80,  654,   79
2211, 2854,  106,  105,  834
2212, 2701,  834,  807,  793
2213, 2719,  625,  630,  624
2214, 2850, 2852, 2888, 2864
2215, 2794,  652,  651,  646
2216, 2697,  804,   10,  131
2217, 2734,   97,  826,  702
2218, 2818,  645,  651,  650
2219, 2811,   54,   55,  629
2220,  653, 2820,  652, 2852
2221, 2700, 2880, 2701, 2825
2222,  835, 2825, 2854,  847
2223, 2809,  629,   55,   56
2224, 2700, 2738,  807, 2739
2225, 2740, 2753, 2737, 2750
2226, 2854,  803,  805,  106
2227, 2808, 2807, 2806, 2849
2228,  792,  836,  837, 2755
2229, 2891, 2812,  650, 2813
2230,  821, 2756,  704,  703
2231,  808,  103,  104,  713
2232,   73,  770,  663,  771
2233, 2886, 2742,  861,  862
2234, 2713,  712,  718,  717
2235, 2864, 2891,  656,  661
2236,  807,  718,  104,  105
2237, 2737, 2739, 2738, 2700
2238,  613,  824,   46,  608
2239,  808,  713,  104,  718
2240,   93,  818,  706,  819
2241,  820,  704,   94,   95
2242, 2848, 2891, 2849, 2837
2243, 2835,  659,  810,  654
2244, 2817,  852,  866,  865
2245, 2693,  742,  741,  736
2246,  839,  138,  139,  799
2247,  140, 2757,  139,  795
2248, 2855, 2824,  705,  698
2249,  851,  850, 2822,  837
2250, 2894,  611, 2885,  616
2251, 2823, 2830, 2874,  700
2252,  831, 2828,   91,  708
2253, 2878, 2742, 2886, 2753
2254, 2812, 2817, 2819, 2820
2255,  812,  639,  813, 2831
2256, 2745,  665, 2837, 2836
2257,  831,  707,  818, 2832
2258, 2810,  631,  625,  626
2259, 2827,  831,  707,  708
2260,   70, 2777,  643,  648
2261, 2678,  799, 2832,  825
2262, 2805,  672, 2804,  667
2263, 2815,  650, 2812, 2813
2264, 2678,  812,  797,  825
2265, 2678, 2831,  825, 2832
2266, 2764,   80,  654,  801
2267, 2774, 2718, 2776, 2716
2268,   73,  658,  770,   72
2269, 2855, 2756, 2759,  697
2270, 2669, 2684, 2823, 2788
2271, 2669, 2685, 2803, 2683
2272, 2683, 2815, 2765, 2884
2273, 2892,  810,  136,  801
2274, 2849, 2836,  665,  666
2275, 2690, 2704,  605,  610
2276, 2829,  635,  640,  634
2277, 2684, 2823, 2788,  693
2278, 2814,  867,  853,  854
2279, 2884,  812,  644,   81
2280, 2745, 2747, 2835,  809
2281,  817,   50,  633,  628
2282,  801,  810,   79,  654
2283, 2892,  842,  841,  136
2284, 2834,  842,  794, 2747
2285, 2890,  855,  841,  842
2286, 2749, 2647,  628,  627
2287, 2748,  817,   50,  633
2288, 2745,  809,  815,  828
2289, 2733, 2731,  747,  748
2290, 2645,  815,  817,  828
2291, 2835,  659,  654,  660
2292, 2745,  809,  664,   77
2293, 2836,  665,  671,  670
2294, 2814, 2848,  867,  854
2295, 2838,  856,  842,  843
2296, 2745,   77,  815,  809
2297, 2645,  628,  817,  633
2298, 2806,  667,  661,  662
2299, 2643,  817, 2645,  628
2300, 2850,  879,  893,  892
2301, 2747,  828,  794,  809
2302, 2745, 2748, 2645,  815
2303, 2838,  843,  842,  802
2304, 2849,  666,  665,  660
2305, 2890,  801,  654,  810
2306, 2716,  771,  782,  772
2307, 2643, 2646,   48,  623
2308, 2748,   50,  815,   76
2309, 2861,  670, 2836,  671
2310, 2813,  655,  649,  650
2311, 2723,  844,  857,  843
2312, 2867, 2776,  881,  880
2313, 2715, 2774, 2718, 2721
2314, 2718,  881, 2773,  882
2315, 2725,  133,  798,  796
2316,  132,  845,  846,  800
2317,  771,  663,   73,   74
2318,  827,  738,  108,  806
2319,  823,   48, 2646,  618
2320, 2643, 2646,  822,   48
2321, 2688, 2689, 2694, 2687
2322, 2729,  608,  613,  607
2323,  655, 2813, 2890, 2891
2324, 2837,  660,  665,  659
2325,  824,  608,  830,   45
2326, 2748,   51,   76,  669
2327, 2771, 2772, 2698,  860
2328, 2786,  738,  732,  733
2329,  810,  654,  659,   79
2330, 2745,  665,  670,  664
2331,  809,  664,   77,   78
2332, 2771,  726,  727,  732
2333,  887,  120,  757,  119
2334, 2697,  805,   10,  804
2335, 2814, 2819, 2817,  866
2336, 2745, 2836, 2746,  670
2337, 2879, 2826,  732,  733
2338, 2804,  671,  666,  672
2339, 2859, 2861, 2746, 2836
2340, 2860,  631,   53,  630
2341, 2784,  755,  789,  757
2342, 2759,  698,  697,  690
2343,  140,  838,  139, 2757
2344, 2737, 2739, 2700, 2753
2345, 2806, 2864,  661, 2849
2346, 2755, 2750, 2756,  792
2347, 2835,  660, 2837,  659
2348, 2864, 2849, 2891,  661
2349,  772,   75,  673,  668
2350, 2873,  729,  734,  114
2351, 2774,  126,  756,  753
2352, 2801,  715,  716,  721
2353, 2791, 2682, 2795,  773
2354,  621,  626, 2651, 2650
2355, 2889,  894, 2774,  753
2356, 2700,  849,  848,  835
2357,  776,  614,  619,   59
2358, 2720,  624,  619,  625
2359, 2867, 2851, 2888,  893
2360, 2670, 2666, 2672, 2673
2361, 2798,  845,  796,  132
2362, 2665,  739,  765,  734
2363, 2870,  870,  883,  869
2364,  775,  787, 2715,  782
2365,  127,  895,  752,  128
2366, 2745,   76, 2748,  815
2367, 2748,  633,   50,    3
2368, 2746,   51,   52,  632
2369, 2745,  669,   76,   77
2370, 2769,  786, 2863,  674
2371, 2840,  714,  762,  709
2372, 2840,  762,  764,  789
2373, 2741, 2708, 2863, 2893
2374, 2784,  755,  781,  789
2375, 2761,  691, 2759,  690
2376, 2836,  665,  666,  671
2377, 2860, 2804, 2810, 2811
2378, 2682,  773,  676,  781
2379, 2860, 2810,  631,  630
2380, 2781,  123, 2779,  751
2381, 2758, 2760, 2766, 2763
2382, 2860,  672,   54,  671
2383, 2784,  755,  757,  120
2384, 2782,  779,  785,  774
2385,  797,  812, 2765,  811
2386, 2809,   56,  787,   57
2387,  758,  124, 2778, 2851
2388, 2805,  668,  673,  667
2389, 2884, 2765, 2831,  812
2390, 2775,  772,  668,   74
2391, 2809,  673,   75,    4
2392,   75,   74,  668,  772
2393, 2671,  785,  751,  768
2394, 2777, 2779,  769,  751
2395, 2841, 2844, 2870, 2648
2396, 2781,  759,  123,  751
2397, 2819,  880,  879,  866
2398, 2779,  891, 2780,  892
2399, 2843,  777,  776,  752
2400, 2844, 2845, 2721,  895
2401, 2845,  775,  752,  776
2402,  111, 2658,  766,  783
2403, 2659,  599, 2661,  790
2404, 2817,  852,  853,  866
2405, 2853,    9,  763,  760
2406, 2661, 2872, 2704, 2846
2407,  888,  889,  875, 2743
2408, 2812, 2817, 2794, 2818
2409, 2711, 2742,  875,  874
2410, 2873,  791,  760,  114
2411, 2739,  718,  723,  717
2412, 2767, 2663, 2768, 2881
2413, 2770,  102,  710,  709
2414, 2893,  689,  688,  681
2415, 2712, 2840, 2784, 2741
2416, 2707,  764,  761, 2839
2417,  676,  781,   85,  675
2418,  719, 2707,  116,  724
2419, 2863,  681,  674,  682
2420, 2707, 2714,  763,  724
2421, 2769,  674,  102,    7
2422, 2682,  773,  677,  676
2423, 2669, 2673, 2674, 2788
2424, 2816,  832, 2750,  792
2425, 2878,  725,  720,  726
2426, 2805,  673,  672,  667
2427, 2774,  756,  782,  753
2428, 2672, 2675, 2674,  687
2429, 2716,  771, 2774,  782
2430,   84,  675,   85,  786
2431, 2676, 2669, 2803, 2667
2432, 2666, 2668, 2667, 2780
2433, 2763, 2793, 2673, 2672
2434,  774,  779,   89,  679
2435, 2670, 2675, 2676, 2674
2436,  781, 2802,  675,  676
2437, 2796,  877,  890,  876
2438, 2800, 2893, 2770, 2708
2439,  827,  107,  108,  733
2440,  117,  714,  762,  764
2441, 2712,  719,  714,  720
2442,  894,  893, 2867,  880
2443, 2707,  887, 2710, 2711
2444,  827,  108,  738,  733
2445,  734,  791, 2665, 2873
2446,  695,  703, 2735, 2734
2447, 2680, 2822,  838,  851
2448, 2707,  764,  719,  116
2449, 2864, 2819,  867,  880
2450, 2668,  878,  865,  879
2451, 2658,  112,  765,  739
2452, 2718,  881,  882,  895
2453,  773,  677,  676,   86
2454,  791,  765,  113,  734
2455, 2658,  765,  766,  788
2456,  773,  676,  781,   86
2457, 2846, 2875,  749, 2872
2458, 2793,  686,  678,  679
2459, 2865,   65,  637,  636
2460, 2658, 2702, 2660,  739
2461, 2676,  642,  641,  636
2462, 2873,  760,  763,  114
2463, 2803,  641,  646,  640
2464, 2661,  790,  778,  788
2465, 2878, 2712, 2801,  720
2466,   61,  778,  604,  790
2467, 2661,  790,  599,  604
2468, 2661,  788,  766,  790
2469, 2876,  736,  730,  731
2470, 2879,  722,  728,  727
2471, 2679, 2681, 2678, 2677
2472, 2767, 2768,  731,  730
2473, 2841,  620, 2650, 2720
2474, 2678, 2765,  812, 2831
2475, 2842,  778,  609,   60
2476, 2894,  611,  616,  610
2477, 2703,  612,  606,  607
2478, 2658,  111,  112,  744
2479,  739, 2702, 2660,  745
2480, 2688, 2687, 2661, 2704
2481, 2846,  749,  750,  788
2482, 2791,  773,   87,  677
2483,   89,  680,  774,  679
2484, 2672, 2793,  774,  679
2485, 2694,  740,  735,  741
2486, 2766,  698,  691,  699
2487,  832, 2750,  792,  821
2488, 2659,  599,    1,   39
2489, 2787,  806,  743,  738
2490, 2793,  678,   88,  679
2491,   90,  767,  774,  680
2492,  680,  767,  774, 2672
2493,   90,  680,  774,   89
2494, 2872,  749,  788,  778
2495, 2679,  864,  851,  865
2496, 2716, 2809,  787,  624
2497, 2715,  787,  775,  624
2498,  775,  624,  787,   57
2499, 2760, 2857,  863,  876
2500, 2675,   67,   66,  680
2501, 2666, 2783,  878,  891
2502, 2841, 2844, 2845, 2721
2503, 2809,  772,  787,   56
2504, 2780,  891,  878,  892
2505, 2796,  877, 2783,  890
2506, 2805, 2809,  673,  772
2507, 2718, 2717, 2807, 2776
2508, 2770,  102,  674,  681
2509, 2800,  711,  710,  101
2510, 2787,  738,  743,  737
2511, 2741, 2708, 2800, 2713
2512, 2774,  753,  782,  771
2513, 2846, 2872, 2704, 2875
2514,  641, 2667, 2676, 2803
2515, 2889, 2867,  894,  893
2516, 2852, 2851, 2868,  658
2517, 2706,  830,  608,  603
2518, 2868,  658,  770,  663
2519, 2851,  770,  758,  125
2520,  663,  658,  770,   73
2521, 2778, 2779,  124,  769
2522, 2843,  896,  749,  128
2523, 2893, 2770, 2708, 2863
2524, 2726,  870,  869,  856
2525, 2809,  772,   75,  673
2526, 2809,   57,  787,  624
2527,  619,  624, 2845,   58
2528, 2777, 2781,  751, 2671
2529, 2762,  677,  678,  685
2530,  767,  638, 2672,  680
2531, 2744,  689,  682,  690
2532,  680,   90,  767,  638
2533, 2743,  875, 2711, 2742
2534, 2671,   69,  768,  643
2535, 2666, 2671, 2672, 2782
2536, 2777, 2781, 2666, 2780
2537,  790,  604,   62,  599
2538, 2793, 2673, 2672, 2782
2539, 2781,  785, 2671, 2782
2540, 2778,  769,  653,  648
2541, 2668,  879, 2780,  878
2542,  653,  758,  658,   72
2543, 2889, 2877,  753, 2774
2544, 2794, 2803,  646, 2818
2545, 2793,  685,  678,  686
2546,  638,   90,  767,   68
2547,  826,   98,  103,  713
2548, 2796, 2887,  876,  889
2549, 2672,  679,  774,  680
2550, 2865, 2684,  694, 2866
2551, 2680, 2757,  139,  838
2552, 2669, 2803, 2685, 2676
2553, 2866,  636,  635,   64
2554, 2758,  684,  692,  691
2555, 2863,  674,  675,  682
2556, 2791, 2762,  677,  678
2557, 2712,  764,  714,  719
2558, 2802,  683,  675,  676
2559, 2761,  690,  683,  691
2560, 2699, 2789, 2698, 2786
2561, 2766,  692,  699,  691
2562, 2889,  125,  126,  753
2563, 2800,  681,  688,  101
2564, 2779,  124,  769,  751
2565, 2791,  677, 2762, 2682
2566, 2730,  607,  606,  601
2567, 2816,  792,  793,  832
2568, 2736,  713,  712,   99
2569, 2794, 2818,  646,  651
2570, 2791,  678,   87,   88
2571, 2853,  887, 2714, 2707
2572, 2795,  889,  754,  121
2573,  795,  140, 2757,  792
2574, 2685, 2684, 2866, 2830
2575, 2769,  786,  674,   84
2576, 2785, 2802, 2784,  781
2577, 2821,  863, 2752,  850
2578, 2752,  850,  863,  849
2579, 2739,  717,  723,  722
2580, 2863, 2840, 2708, 2741
2581, 2863,  674,  786,  675
2582, 2821, 2760, 2673, 2788
2583, 2684, 2674,  693, 2788
2584, 2685,  635,  641,  640
2585, 2707,  724,  763,  115
2586, 2792,  759,  779,  754
2587, 2685,  636,  641,  635
2588, 2674,  687,  694,  686
2589, 2714,  724, 2873,  763
2590, 2684,  701, 2830,  700
2591, 2723, 2838,  843,  856
2592, 2865, 2674, 2684, 2676
2593, 2775,  663,   74,  668
2594, 2674,  693,  686,  694
2595, 2733,  748,  743,  110
2596, 2733,  110,  743,  109
2597, 2684,  693,  694,  701
2598, 2669, 2676, 2684, 2674
2599, 2862, 2706, 2731,  603
2600, 2731,  747,  748,   43
2601, 2740, 2857, 2742,  862
2602, 2724, 2883, 2657, 2725
2603, 2759,  698,  690,  691
2604, 2839,  757,  789,  764
2605, 2736,  702,   99,  695
2606, 2799,  688,  695,  100
2607, 2733,  748,  742,  743
2608, 2882,  746,  747,   42
2609, 2705,  746,  745,  740
2610, 2882, 2797, 2858, 2730
2611, 2705,  746,  740,  741
2612, 2659,  783,  111,    1
2613, 2702,  745,  739,  740
2614, 2775,  663,  771,   74
2615, 2658, 2659,  783,  111
2616, 2709, 2751,  696,  689
2617, 2738,  702,  826,  713
2618, 2734,  702,  703,   96
2619,  842,  135,  794,  802
2620,  806,  738,  108,  109
2621, 2724, 2706, 2798,  824
2622, 2894, 2649,  616, 2885
2623, 2678,  812, 2765,  797
2624,  754,  759,  890, 2792
2625, 2862,    2,  110,   44
2626,  816,   47, 2722,  613
2627, 2812, 2814, 2864, 2819
2628, 2706,  830,  814,  829
2629, 2830, 2874,  700,  707
2630, 2882, 2797,  747,  746
2631, 2822,  851,  837,  838
2632, 2858,   40,  601,  600
2633, 2833,  635,  634,   63
2634, 2684,  700,  693,  701
2635, 2659,  790,   62,  599
2636,  820,   94,  704,  705
2637,  765,  739,  112,  113
2638, 2830,  701,  708,  700
2639, 2658,  112,  739,  744
2640, 2692,  599,  600,  605
2641, 2875,  897,  896,  883
 2642, 2895, 2896, 2897, 2898
 2643, 2895, 2899, 2898, 2897
 2644, 2900, 2901, 2902, 2903
 2645, 2904, 2905, 2906, 2907
 2646, 2904, 2908, 2909, 2910
 2647, 2904, 2902, 2906, 2911
 2648, 2904, 2906, 2902, 2912
 2649, 2907, 2904, 2909, 2906
 2650, 2906, 2904, 2909, 2910
 2651, 2909, 2906, 2913, 2907
 2652, 2904, 2906, 2912, 2910
 2653, 2914, 2915, 2916, 2917
 2654, 2914, 2907, 2915, 2917
 2655, 2914, 2915, 2907, 2913
 2656, 2914, 2918, 2915, 2913
 2657, 2914, 2896, 2916, 2919
 2658, 2914, 2920, 2909, 2896
 2659, 1639, 2921, 2922, 1674
 2660, 2915, 2923, 2924, 2917
 2661, 2925, 2020, 1440, 2926
 2662, 2915, 2918, 2919, 2927
 2663, 2915, 2928, 2916, 2917
 2664, 2914, 2909, 2913, 2907
 2665, 2923, 2913, 2907, 2915
 2666, 2915, 2929, 2923, 2913
 2667, 2930, 2931, 2932, 2933
 2668, 2930, 2934, 2935, 2936
 2669, 2930, 2934, 2937, 2935
 2670, 2920, 2938, 2939, 2940
 2671, 2920, 2896, 2941, 2909
 2672, 2920, 2942, 2896, 2943
 2673, 2920, 2941, 2942, 2944
 2674, 2920, 2938, 2940, 2945
 2675, 2920, 2945, 2944, 2943
 2676, 2946, 2947, 2948, 2949
 2677, 2946, 2913, 2950, 2910
 2678, 2946, 2951, 2950, 2952
 2679, 2946, 2952, 2953, 2951
 2680, 2946, 2948, 2953, 2954
 2681, 2895, 2955, 2905, 2907
 2682, 2914, 2909, 2920, 2938
 2683, 2896, 2943, 2956, 2957
 2684, 2958, 2959, 2084, 2085
 2685, 2960, 2956, 2916, 2898
 2686, 2895, 2897, 2896, 2941
 2687, 2896, 2898, 2961, 2897
 2688, 2956, 2916, 2898, 2896
 2689, 2898, 2962, 2963, 2897
 2690, 2898, 2955, 2907, 2917
 2691, 2898, 2916, 2964, 2917
 2692, 2898, 2955, 2964, 2965
 2693, 2898, 2955, 2962, 2899
 2694, 2966, 1629, 1627, 1557
 2695, 2895, 2955, 2898, 2899
 2696, 2914, 2896, 2919, 2938
 2697, 2967, 2968, 2969, 2970
 2698, 2967, 2971, 2972, 2973
 2699, 2967, 2971, 2974, 2970
 2700, 2895, 2909, 2914, 2907
 2701, 2941, 2944, 2975, 2934
 2702, 2920, 2944, 2976, 2975
 2703, 2895, 2941, 2977, 2897
 2704, 2904, 2978, 2941, 2908
 2705, 2979, 2109,  397, 1588
 2706, 2895, 2896, 2914, 2909
 2707, 2929, 2923, 2980, 2924
 2708, 2929, 2949, 2981, 2982
 2709, 2915, 2907, 2923, 2917
 2710, 2923, 2929, 2980, 2906
 2711, 2979, 2983, 2109, 1588
 2712, 2906, 2913, 2907, 2923
 2713, 2929, 2949, 2980, 2947
 2714, 2949, 2980, 2982, 2929
 2715, 2929, 2923, 2924, 2915
 2716, 2905, 2984, 2906, 2923
 2717, 2923, 2985, 2905, 2984
 2718, 2923, 2986, 2980, 2987
 2719, 2913, 2929, 2923, 2906
 2720, 2923, 2987, 2980, 2924
 2721, 2923, 2988, 2917, 2907
 2722, 2923, 2988, 2907, 2905
 2723, 2947, 2906, 2986, 2980
 2724, 2085, 2959, 2084, 1586
 2725, 2906, 2911, 2989, 2984
 2726, 2912, 2990, 2989, 2991
 2727, 2946, 2947, 2906, 2912
 2728, 2906, 2984, 2905, 2911
 2729, 2923, 2906, 2905, 2907
 2730, 2980, 2992, 2993, 2994
 2731, 2929, 2982, 2981, 2995
 2732, 2996, 1875,  192,  271
 2733, 2980, 2947, 2994, 2986
 2734, 2923, 2924, 2985, 2987
 2735, 2946, 2913, 2929, 2918
 2736, 2997, 2998, 2999, 3000
 2737, 3001, 3002, 3003, 3004
 2738, 3001, 3002, 3005, 3003
 2739, 3001, 3006, 3007, 3008
 2740, 2920, 2976, 2944, 2945
 2741, 3009, 3010, 3011, 2944
 2742, 3012, 3009, 3010, 3011
 2743, 3009, 3013, 3010, 2944
 2744, 3014, 3009, 3013, 3010
 2745, 2944, 2976, 3013, 3015
 2746, 2944, 3016, 2975, 2937
 2747, 2920, 2908, 2941, 2975
 2748, 2944, 3013, 2975, 3016
 2749, 2914, 2913, 2938, 2918
 2750, 2914, 2915, 2919, 2916
 2751, 2912, 2989, 2906, 2902
 2752, 2946, 2929, 2906, 2947
 2753, 2946, 2951, 2912, 2910
 2754, 2908, 2909, 2913, 2939
 2755, 2913, 2909, 2938, 2939
 2756, 2910, 2909, 2913, 2908
 2757, 2918, 2981, 3017, 3018
 2758, 3001, 2938, 2939, 2918
 2759, 3001, 2940, 3002, 2939
 2760, 2946, 2912, 2951, 2948
 2761, 3019, 2921, 2922, 2958
 2762, 2895, 2904, 2977, 2941
 2763, 2955, 2907, 2988, 2905
 2764, 2955, 2905, 2969, 2901
 2765, 2898, 2955, 2917, 2964
 2766, 2955, 2988, 2917, 2964
 2767, 2895, 2941, 2896, 2909
 2768, 2895, 2898, 2955, 2907
 2769, 2946, 2951, 2953, 2948
 2770, 2953, 2948, 2951, 3020
 2771, 2953, 2951, 2952, 3021
 2772, 2953, 3022, 2952, 2954
 2773, 3023, 3024, 3025, 2953
 2774, 3026, 1269, 1045, 3027
 2775, 2903, 3028, 3029, 2978
 2776, 3028, 3030, 2902, 3031
 2777, 3028, 3030, 2978, 2903
 2778, 2901, 2902, 2903, 2904
 2779, 1551, 3032, 1553, 1136
 2780, 1222, 1221, 3033, 3034
 2781, 3030, 3035, 3036, 3037
 2782, 2904, 2911, 2906, 2905
 2783, 2895, 2977, 2904, 2901
 2784, 3030, 3038, 2978, 2910
 2785, 2991, 3030, 3035, 3031
 2786, 3030, 2902, 2991, 2912
 2787, 2003, 3039, 2004, 3040
 2788, 2980, 2982, 2924, 2987
 2789, 2982, 3041, 2981, 3042
 2790, 2982, 3043, 3044, 3045
 2791, 2982, 2981, 2995, 3042
 2792, 2982, 3046, 2995, 3044
 2793, 3047, 2073, 1490, 2072
 2794, 2896, 2898, 2956, 2961
 2795, 2916, 2960, 2957, 2956
 2796, 2898, 2916, 2960, 2964
 2797, 2916, 2917, 2928, 2964
 2798, 2916, 3048, 2919, 2957
 2799, 3049, 1376, 3050, 1375
 2800, 3051, 3052, 3053, 1720
 2801, 3054, 1719, 3052, 3051
 2802, 2916, 2919, 3048, 2927
 2803, 2918, 2919, 2927, 3006
 2804, 2918, 2981, 2949, 3017
 2805, 3055, 2964, 3056, 2988
 2806, 2964, 3056, 2988, 2917
 2807, 2927, 3056, 3057, 2928
 2808, 3056, 2915, 2927, 2995
 2809, 2898, 2916, 2917, 2907
 2810, 2950, 3001, 3002, 2939
 2811, 2920, 2940, 2939, 2976
 2812, 2920, 2943, 2938, 2945
 2813, 2895, 2914, 2916, 2907
 2814, 2943, 2920, 2938, 2896
 2815, 2938, 2919, 3058, 2943
 2816, 2917, 2924, 3056, 2988
 2817, 2915, 2927, 2916, 2928
 2818, 3059, 2918, 2950, 2946
 2819, 3060, 3061, 3062, 3063
 2820, 2957, 2943, 2919, 2896
 2821, 2919, 3048, 3064, 2957
 2822, 2919, 3006, 3064, 3048
 2823, 2895, 2904, 2941, 2909
 2824, 2923, 2905, 2985, 2988
 2825, 2946, 2929, 2913, 2906
 2826, 3065, 2110, 2083,  406
 2827, 2898, 2955, 2965, 2962
 2828, 3056, 2915, 2924, 2917
 2829, 2915, 2929, 2913, 2918
 2830, 2939, 2909, 2938, 2920
 2831, 2913, 2908, 2950, 2910
 2832, 2916, 2895, 2898, 2896
 2833, 2916, 3048, 2960, 2928
 2834, 2906, 2929, 2980, 2947
 2835, 2905, 2901, 2911, 3066
 2836, 2905, 2984, 2985, 2972
 2837, 2923, 2984, 2986, 2985
 2838, 2904, 2941, 2934, 2977
 2839, 2915, 2981, 2918, 2927
 2840, 2896, 2914, 2916, 2895
 2841, 2946, 2906, 2910, 2912
 2842, 2955, 2905, 2972, 2969
 2843, 2955, 2901, 2969, 2899
 2844, 2901, 2911, 2900, 2902
 2845, 2901, 2899, 3067, 3066
 2846, 2901, 2969, 2899, 3066
 2847, 2901, 2900, 3068, 2903
 2848, 2951, 3020, 3069, 3021
 2849, 3059, 2950, 2954, 2946
 2850, 3070, 3020, 3071, 2948
 2851, 3020, 3071, 2948, 2951
 2852, 2952, 3037, 3072, 2951
 2853, 3073, 3037, 3072, 2952
 2854, 2951, 3020, 3071, 3069
 2855, 2951, 2910, 3037, 2912
 2856, 3036, 3038, 3074, 2978
 2857, 3030, 2910, 3037, 3038
 2858, 1900, 1888, 3075, 3062
 2859, 2896, 2942, 2941, 2897
 2860, 3076, 1248, 3077, 1247
 2861, 2930, 2978, 2934, 3078
 2862, 2930, 2978, 3074, 3060
 2863, 3038, 2975, 3079, 2978
 2864, 3062, 1888, 3080, 1883
 2865, 2978, 3060, 2975, 3079
 2866, 2896, 2956, 2916, 2957
 2867, 2960, 2928, 3081, 3082
 2868, 2898, 2960, 3083, 2964
 2869, 2960, 3083, 2964, 3084
 2870, 3082, 2960, 3084, 3085
 2871, 2960, 3084, 2964, 2928
 2872, 2927, 3057, 2995, 3042
 2873, 2916, 2928, 2927, 3048
 2874, 2927, 2928, 3057, 3048
 2875, 2915, 2927, 2995, 2981
 2876, 3086, 3087, 3088, 2989
 2877, 3086, 3089, 3090, 3091
 2878, 3086, 3092, 3093, 2989
 2879, 3086, 3094, 3089, 3095
 2880, 3086, 3095, 1460, 3096
 2881, 3073, 3037, 2950, 3038
 2882, 2914, 2918, 2938, 2919
 2883, 2946, 2948, 2947, 2912
 2884, 2946, 2929, 2947, 2949
 2885, 2917, 2964, 3056, 2928
 2886, 2955, 2905, 2988, 2972
 2887, 2952, 2951, 2950, 3037
 2888, 2978, 2941, 2934, 2904
 2889, 2908, 2941, 2975, 2978
 2890, 2902, 2991, 2912, 2989
 2891, 2991, 3097, 3071, 3098
 2892, 2991, 3098, 2990, 3099
 2893, 3100, 3101, 3102, 3103
 2894, 3100, 3104, 3105, 3106
 2895, 3100, 2971, 3102, 2970
 2896, 2974, 2970, 3107, 3106
 2897, 2970, 3107, 3106, 3100
 2898, 3100, 3102, 3101, 2970
 2899, 3108, 3109, 1642, 3110
 2900, 3111, 3108, 3112, 3113
 2901, 3108, 3111, 3114, 3115
 2902, 3112, 3111, 3116, 3110
 2903, 3029, 2930, 2936, 3078
 2904, 3117,  232, 1127,  231
 2905, 2931, 3118, 2936, 2930
 2906, 2933, 3029, 2930, 2931
 2907, 3029, 3119, 3120, 3074
 2908, 2904, 3030, 2902, 2903
 2909, 2978, 3029, 3074, 3119
 2910, 3121, 3122, 3123, 3035
 2911, 3035, 3124, 3125, 3069
 2912, 3035, 3037, 2912, 3071
 2913, 3035, 3031, 3036, 3123
 2914, 3035, 3126, 3069, 3125
 2915, 2991, 3031, 3035, 3121
 2916, 2991, 3127, 3121, 3122
 2917, 2991, 3035, 3122, 3121
 2918, 3035, 3097, 3124, 3069
 2919, 3035, 3071, 3097, 3069
 2920, 2960, 3081, 2928, 3048
 2921, 2895, 2905, 2904, 2907
 2922, 2964, 3128, 3084, 2965
 2923, 2910, 2906, 2913, 2909
 2924, 2918, 2938, 2939, 2913
 2925, 2904, 3030, 2903, 2978
 2926, 2955, 2988, 2964, 2965
 2927, 2978, 3060, 3079, 3074
 2928, 2983, 2083, 2109, 2082
 2929, 3129, 3130, 3131, 3002
 2930, 3130, 3132, 1919, 3133
 2931, 3130, 3134, 3135, 3133
 2932, 3130, 3002, 3136, 3137
 2933, 3130, 3132, 3138, 1919
 2934, 3138, 3130, 3136, 3132
 2935, 2960, 3084, 3085, 3083
 2936, 2964, 2928, 3084, 3055
 2937, 2928, 3082, 2960, 3084
 2938, 2960, 3048, 2957, 3139
 2939, 3002, 2939, 3134, 2950
 2940, 3002, 2939, 2940, 3137
 2941, 2916, 2957, 2960, 3048
 2942, 3140, 3055, 3141, 3082
 2943, 3140, 3142, 3143, 3082
 2944, 2928, 3140, 3056, 3057
 2945, 3144, 3145, 1462, 1486
 2946, 3144, 3146, 1462, 3145
 2947, 3144, 3147, 3148, 3149
 2948, 3144, 3150, 1487, 3151
 2949, 3144, 1463, 3150, 3151
 2950, 3144, 3150, 3148, 3152
 2951, 3153, 3154, 3155, 3156
 2952, 3153, 3157, 3158, 3155
 2953, 3153, 3158, 3157, 3159
 2954, 3158, 3160, 3159, 3161
 2955, 3153, 3162, 3154, 3156
 2956, 3163, 3164, 3165, 3019
 2957, 3166, 3167, 2958, 3019
 2958, 3168, 1223, 3034, 1199
 2959, 3166, 3019, 2958, 3169
 2960, 3019, 3166, 3167, 3165
 2961, 3019, 3170, 3171, 2921
 2962, 3019, 3171, 3170, 3166
 2963, 3172, 1162, 3173, 3174
 2964, 3019, 3164, 3167, 3175
 2965, 3019, 3167, 2958, 3175
 2966, 2967, 2965, 2955, 2962
 2967, 2895, 2901, 2899, 2977
 2968, 2905, 2911, 2984, 3066
 2969, 2899, 2969, 3067, 3066
 2970, 2899, 2977, 3176, 3177
 2971, 2899, 2968, 2969, 2962
 2972, 2899, 3177, 2962, 2897
 2973, 3178, 3179, 3180, 3181
 2974, 3178, 3181, 3182, 3183
 2975, 3182, 3184, 3185, 3178
 2976, 3186, 1254, 3187, 1278
 2977, 3178, 3188, 3184, 3189
 2978, 3178, 3183, 3184, 3188
 2979, 3190, 3007, 3191, 3192
 2980, 3193, 3190, 3194, 3195
 2981, 3190, 3192, 3193, 3196
 2982, 3197, 3198, 3199, 3190
 2983, 3190, 3197, 3198, 3200
 2984, 3190, 3197, 3007, 3201
 2985, 3202, 3203, 3204, 3205
 2986, 3202, 3206, 3205, 3204
 2987, 3202, 3206, 3207, 3205
 2988, 3202, 3207, 3208, 3209
 2989, 1266, 1243, 1242, 1047
 2990, 3210, 3202, 3206, 3208
 2991, 3202, 3208, 3210, 3211
 2992, 3146, 3149, 3150, 2993
 2993, 3144, 3146, 3149, 3150
 2994, 3146, 3212, 3213, 1438
 2995, 3146, 1439, 3213, 2925
 2996, 3146, 3149, 2993, 2994
 2997, 3214, 3017, 3201, 3215
 2998, 3215, 3216, 3003, 3059
 2999, 3217, 3215, 3023, 3218
 3000, 1584,  396, 3219, 2109
 3001, 3215, 3218, 3217, 3214
 3002, 3220, 3221, 3222, 3223
 3003, 3220, 3224, 3067, 3068
 3004, 3220, 3221, 3225, 3226
 3005, 3220, 3068, 3222, 3224
 3006, 3220, 3225, 3221, 3227
 3007, 3220, 3227, 3221, 3228
 3008, 3220, 3227, 3229, 3068
 3009, 3002, 3004, 2950, 3134
 3010, 2938, 2943, 3058, 2945
 3011, 2920, 2976, 2939, 2908
 3012, 2941, 2942, 2934, 2897
 3013, 2934, 2904, 3078, 2978
 3014, 3134, 2939, 2908, 2950
 3015, 1168, 3230, 1163, 1169
 3016, 2939, 3137, 2908, 2976
 3017, 2948, 2992, 3231, 2947
 3018, 2992, 3232, 2947, 2948
 3019, 2980, 2992, 2994, 2947
 3020, 2992, 3231, 3233, 3234
 3021, 3235, 3231, 3236, 3234
 3022, 3231, 3236, 3234, 2992
 3023, 3237, 3238, 3012, 3014
 3024, 3014, 3238, 3010, 3239
 3025, 3014, 3240, 3237, 3241
 3026, 3242, 3243, 3244, 1166
 3027, 2930, 3016, 2975, 3060
 3028, 3245, 1014,  988, 1015
 3029, 3246, 2931, 3118, 2936
 3030, 2930, 2937, 2975, 3016
 3031, 2930, 2978, 3078, 3029
 3032, 2934, 2936, 2977, 2935
 3033, 3247, 3248, 3249, 1230
 3034, 3186, 1278, 3250, 3251
 3035, 3066, 2984, 3252, 3094
 3036, 2967, 2969, 2955, 2972
 3037,  681,  347, 1801,  102
 3038, 2972, 2905, 2984, 2969
 3039, 2969, 2984, 3252, 3066
 3040, 2911, 2900, 3088, 3066
 3041, 3252, 3066, 3102, 2969
 3042, 2895, 2905, 2955, 2901
 3043, 2980, 2947, 2949, 3231
 3044, 2992, 3253, 2994, 3213
 3045, 2992, 2948, 3236, 3232
 3046, 2947, 2994, 2986, 2990
 3047, 2980, 2987, 2986, 2994
 3048, 2982, 3045, 2980, 2949
 3049, 2982, 2924, 2987, 3044
 3050, 2924, 3254, 3255, 3256
 3051, 2924, 3056, 2988, 3255
 3052, 2995, 3056, 2915, 2924
 3053, 2924, 2988, 2985, 3257
 3054, 2924, 3044, 3255, 3254
 3055, 3054, 3258, 3052, 3259
 3056, 3054, 3258, 3259, 3000
 3057, 3054, 3260, 3261, 3000
 3058, 2108, 2107,  395, 1580
 3059, 3054,  410, 3262, 3260
 3060, 3054, 3051, 3262, 1719
 3061, 3054, 1719, 3262,  410
 3062, 3141, 3055, 3263, 3082
 3063, 3055, 3263, 3082, 3084
 3064, 2896, 2916, 2919, 2957
 3065, 3084, 3055, 3264, 3128
 3066, 3084, 3128, 3265, 3266
 3067, 2964, 3128, 2988, 3055
 3068, 3084, 2965, 3128, 3266
 3069, 2941, 2975, 2978, 2934
 3070, 2975, 3063, 3060, 3016
 3071, 3074, 2933, 3029, 2930
 3072, 2930, 3060, 2932, 3016
 3073, 2943, 2942, 3267, 3009
 3074, 3011, 3268, 3267, 2943
 3075, 3269, 3011, 3268, 3267
 3076, 2943, 2945, 3011, 3270
 3077, 2919, 3058, 2943, 2957
 3078, 2920, 2941, 2896, 2942
 3079, 2896, 2920, 2938, 2914
 3080, 2944, 2942, 2943, 3009
 3081, 3028, 3271, 3272, 3273
 3082, 3028, 2900, 3273, 2902
 3083, 3028, 2900, 2902, 2903
 3084, 2903, 2900, 3068, 3028
 3085, 2969, 3225, 2970, 2968
 3086, 2967, 3266, 2965, 3274
 3087, 2967, 3275, 2974, 3266
 3088, 2899, 2962, 3177, 2968
 3089, 2955, 2962, 2899, 2969
 3090, 2901, 3067, 2899, 2977
 3091, 2962, 2965, 3276, 3274
 3092, 2969, 2905, 2984, 3066
 3093, 2899, 3177, 3176, 3277
 3094, 2967, 2965, 2962, 3274
 3095, 2940, 3129, 3008, 3002
 3096, 3129, 3136, 2940, 3278
 3097, 3136, 3279, 3278, 3129
 3098, 2940, 3015, 3278, 3136
 3099, 2945, 2940, 3015, 3278
 3100, 3136, 2940, 2976, 3137
 3101, 3136, 2940, 3015, 2976
 3102, 3002, 2940, 3136, 3137
 3103, 3136, 3280, 3278, 3279
 3104, 3132, 3136, 3281, 3137
 3105, 3230, 3247, 1253, 1229
 3106, 3282, 3283, 3284, 3285
 3107, 3286, 3287, 1056, 3288
 3108, 3289, 3290, 3291, 3292
 3109, 3284, 3283, 2028, 3289
 3110, 2001, 3284, 3283, 2028
 3111, 3289, 3293, 3294, 3292
 3112, 3289, 3295, 3283, 3294
 3113, 3289, 3284, 3292, 2028
 3114, 3242, 3173, 3296, 3297
 3115, 3242, 3298, 3299, 3300
 3116, 3244, 3300, 3243, 3242
 3117, 3301, 3302, 1139, 1140
 3118, 3242, 1166, 3173, 3243
 3119, 3242, 1166, 1167, 3173
 3120, 3242, 3303, 3173, 1167
 3121, 3244, 1167, 3303, 3242
 3122, 3242, 3299, 3304, 3305
 3123, 3001, 3007, 3306, 3005
 3124, 3306, 3005, 3007, 3307
 3125, 3308,  356, 1614, 1521
 3126, 3308,  355, 1611,  356
 3127, 3308, 3309, 3310, 1614
 3128, 3308, 3311, 1498, 1497
 3129, 3308, 3312, 3313, 3314
 3130, 3308, 3312, 1498, 3311
 3131, 3308, 3309, 3311, 3310
 3132, 1826,  259, 1180,  258
 3133, 1497, 3310, 1521, 3308
 3134, 2911, 3094, 3066, 3088
 3135, 3315, 2984, 3316, 2985
 3136, 2984, 3317, 2985, 3315
 3137, 3316, 3318, 2985, 2984
 3138, 2984, 3252, 3319, 3316
 3139, 2984, 3317, 2986, 2985
 3140, 2929, 2980, 2982, 2924
 3141, 2923, 2924, 2988, 2985
 3142, 2964, 2965, 2988, 3128
 3143, 2899, 3177, 3277, 2968
 3144, 2989, 3094, 2984, 2911
 3145, 2980, 2987, 2993, 3320
 3146, 2988, 3056, 3055, 3255
 3147, 2991, 3035, 3071, 3097
 3148, 2946, 2951, 2910, 2950
 3149, 2906, 2912, 2947, 2986
 3150, 2951, 2950, 3037, 2910
 3151, 2951, 2912, 3071, 2948
 3152, 2906, 2911, 2902, 2989
 3153, 3321, 1283, 1307, 1306
 3154, 2991, 3035, 2912, 3071
 3155, 2904, 3030, 2912, 2902
 3156, 3197, 3018, 3201, 3199
 3157, 3190, 3201, 3007, 3295
 3158, 3195, 3197, 3322, 3323
 3159, 3190, 3198, 3295, 3294
 3160, 2927, 3197, 3006, 3322
 3161, 3197, 3006, 3322, 3323
 3162, 3324, 3232, 3070, 3325
 3163, 3326, 1258, 3327, 1259
 3164, 3325, 3328, 3070, 3324
 3165, 3325, 3098, 1414, 1438
 3166, 3325, 3324, 3213, 2926
 3167, 3325, 3098, 1438, 3213
 3168, 3213, 2926, 1440, 3325
 3169, 2927, 3006, 3197, 3018
 3170, 2919, 3006, 2938, 3058
 3171, 2919, 2927, 3006, 3048
 3172, 3006, 3058, 3329, 3008
 3173, 3001, 3007, 3006, 3018
 3174, 3006, 3048, 3323, 3064
 3175, 3057, 3081, 3143, 3322
 3176, 3057, 3330, 3331, 3332
 3177, 3057, 3042, 3330, 2995
 3178, 2913, 2918, 2950, 2939
 3179, 2927, 2981, 3042, 2995
 3180, 2928, 3057, 3048, 3081
 3181, 2927, 3048, 3057, 3322
 3182, 2915, 2929, 2918, 2981
 3183, 2918, 3017, 2949, 3059
 3184, 2915, 2929, 2981, 2995
 3185, 2982, 3042, 2995, 3046
 3186, 2981, 3199, 3041, 3333
 3187, 3334, 3335, 3336, 3337
 3188, 2981, 3042, 3199, 3018
 3189, 2919, 3058, 2957, 3064
 3190, 2939, 2908, 2950, 2913
 3191, 1305, 3321, 1282, 3338
 3192,  977, 1004, 3339, 3340
 3193, 3001, 2918, 3059, 3018
 3194, 3057, 3048, 3081, 3322
 3195, 2927, 3042, 2981, 3018
 3196, 2927, 3197, 3042, 3018
 3197, 3137, 3341, 3134, 2908
 3198, 3038, 3135, 3073, 3342
 3199, 3038, 3135, 3134, 3073
 3200, 3038, 3037, 3036, 3343
 3201, 2978, 2975, 2908, 3038
 3202, 2978, 2910, 3038, 2908
 3203, 3038, 3134, 2950, 3073
 3204, 2953, 3344, 3021, 3022
 3205, 2975, 3038, 3341, 2908
 3206, 3038, 3343, 3342, 3073
 3207, 2910, 2950, 3038, 2908
 3208, 2903, 3028, 3030, 2902
 3209, 2939, 2938, 3001, 2940
 3210, 2904, 2911, 2901, 2902
 3211, 3345, 2107, 2080, 2081
 3212, 3028, 2900, 3068, 3273
 3213, 3068, 3028, 3271, 2903
 3214, 2900, 3090, 3273, 3088
 3215, 2107,  394,  395, 1576
 3216, 2903, 2901, 3067, 3068
 3217, 3066, 2900, 3068, 2901
 3218, 2900, 3066, 3090, 3088
 3219, 3346, 3347, 3249, 3248
 3220, 2901, 2911, 3066, 2900
 3221, 3004, 3348, 2954, 3022
 3222, 3004, 2952, 3022, 2954
 3223, 3002, 3003, 3349, 3131
 3224, 3004, 3134, 2952, 2950
 3225, 3004, 3348, 3003, 2954
 3226, 3001, 3216, 3306, 3007
 3227, 2952, 2950, 3073, 3037
 3228, 2946, 2952, 2950, 2954
 3229, 2953, 2948, 3023, 2954
 3230, 3004, 2950, 2952, 2954
 3231, 3350, 3351, 3352, 3353
 3232, 3354, 3355, 3083, 3350
 3233, 3350, 3276, 3083, 3356
 3234, 3350, 3083, 3085, 3356
 3235, 3058, 3329, 3008, 3357
 3236, 2940, 3058, 3357, 2945
 3237, 2938, 2945, 3058, 2940
 3238, 3006, 3329, 3058, 3064
 3239, 2943, 2957, 3058, 3270
 3240, 2919, 3064, 3006, 3058
 3241, 3058, 3270, 2957, 3064
 3242, 3358, 2943, 2956, 2961
 3243, 2920, 2909, 2941, 2908
 3244, 2945, 3015, 2940, 2976
 3245, 2945, 3270, 3359, 3011
 3246, 2943, 3268, 2957, 3270
 3247, 2907, 2895, 2898, 2916
 3248, 3202, 3211, 1008, 3360
 3249, 3035, 3031, 3123, 3121
 3250, 2106, 1572, 2105,  393
 3251, 3361, 3362, 1910, 1826
 3252, 3030, 3036, 3031, 3119
 3253, 3031, 3363, 3119, 3123
 3254, 3030, 2912, 3035, 3037
 3255, 3030, 3036, 2978, 3038
 3256, 3148, 2987, 3147, 3315
 3257, 3148, 3364, 3147, 3365
 3258, 3148, 3365, 3147, 3152
 3259, 3366, 2993, 3150, 3148
 3260, 3148, 2993, 2987, 3320
 3261, 3225, 3068, 3066, 3090
 3262, 3220, 3225, 3227, 3068
 3263, 2969, 3102, 3225, 3066
 3264, 3225, 3102, 2970, 3101
 3265, 2969, 3225, 2968, 3067
 3266, 3225, 2970, 2968, 3226
 3267, 3100, 2971, 3252, 3102
 3268, 3100, 3367, 3368, 3252
 3269, 2969, 2971, 2970, 3102
 3270, 2905, 2901, 3066, 2969
 3271, 2971, 2974, 2970, 3107
 3272, 2967, 2974, 2971, 2973
 3273, 2971, 3318, 3252, 2972
 3274, 2967, 2969, 2972, 2971
 3275, 2967, 2973, 2972, 2965
 3276, 3100, 3369, 3105, 3104
 3277, 3100, 3102, 3369, 3103
 3278, 3090, 3225, 3094, 3066
 3279, 3368, 3102, 3100, 3252
 3280, 3102, 3094, 3252, 3368
 3281, 3370, 1232, 3371, 1208
 3282, 3372, 3373, 3374, 3371
 3283, 2898, 2899, 2962, 2897
 3284, 2964, 3055, 3084, 3128
 3285, 2960, 2956, 3083, 3085
 3286, 2956, 3139, 3375, 3085
 3287, 2956, 2961, 3354, 3358
 3288, 2956, 3139, 3376, 3375
 3289, 2955, 2907, 2917, 2988
 3290, 3248, 3377, 1183, 1206
 3291, 2896, 2956, 2943, 2961
 3292,  971, 3378, 3379, 3380
 3293, 3378, 3381,  970, 3382
 3294, 3378, 3380,  195, 1763
 3295, 3378,  194, 3381, 1766
 3296, 3159, 3161, 3153, 3158
 3297, 3158, 3159, 3160, 3383
 3298, 3155, 3158, 3384, 3385
 3299, 3158, 3155, 3157, 3386
 3300, 3387, 3158, 3385, 3383
 3301, 3158, 3157, 3387, 3386
 3302, 3384, 3383, 3388, 3385
 3303, 3389, 3390, 2983, 3112
 3304, 3390, 3112, 3200, 3391
 3305, 3116, 3112, 3392, 3113
 3306, 3393, 3112, 3392, 3116
 3307, 3113, 3111, 3116, 3112
 3308, 3394, 1231, 3371, 1232
 3309, 3395, 3112, 3396, 3109
 3310, 3347, 1231, 3248, 1207
 3311, 3397, 3112, 3392, 3393
 3312, 3398, 3399, 1693, 3263
 3313, 3112, 3396, 3116, 3393
 3314, 3400, 3401, 3402, 3322
 3315, 3400, 3403, 3397, 3404
 3316, 3400, 3405, 3401, 3143
 3317, 3400, 3397, 3402, 3406
 3318, 2951, 2952, 3021, 3072
 3319, 2951, 3069, 3037, 3072
 3320, 2951, 2912, 3037, 3071
 3321, 3407, 3408, 1677, 1683
 3322, 3020, 3409, 3410, 3411
 3323, 3020, 3411, 3021, 3344
 3324, 3020, 3344, 3025, 3409
 3325, 3020, 3409, 3070, 3412
 3326, 3413, 3414, 3415, 3416
 3327, 3415, 3413, 3417, 3418
 3328, 3414, 3419, 3420, 3165
 3329, 3421, 3422, 1320, 3423
 3330,  387,  388, 2100,  362
 3331, 3424, 3415, 3425, 3163
 3332, 3415, 3425, 3163, 3414
 3333, 3414, 3426, 3413, 3418
 3334, 3420, 3163, 3426, 3414
 3335, 3171, 3420, 3163, 3426
 3336, 2896, 2897, 2961, 2942
 3337, 2898, 2956, 2961, 3083
 3338, 2897, 2942, 3427, 2961
 3339, 2962, 3276, 3083, 2963
 3340, 2898, 2965, 2964, 3083
 3341, 2899, 2897, 2977, 3177
 3342, 2962, 2897, 3177, 2963
 3343, 2969, 3225, 3102, 2970
 3344, 2938, 2896, 2919, 2943
 3345, 2904, 3030, 2978, 2910
 3346, 2960, 2956, 3139, 2957
 3347, 3197, 3428, 3200, 3322
 3348, 3048, 3081, 3429, 3139
 3349, 2898, 3083, 2962, 2965
 3350, 2928, 3082, 3140, 3143
 3351, 3001, 3004, 3003, 3059
 3352, 3004, 3003, 3059, 2954
 3353, 3001, 3003, 3306, 3216
 3354, 3306, 3216, 3430, 3285
 3355, 3215, 3059, 3003, 2954
 3356, 3003, 3431, 3348, 3432
 3357, 3001, 3008, 3007, 3005
 3358, 3001, 2938, 3006, 3008
 3359, 3197, 3006, 3007, 3018
 3360, 3433, 3434, 1654, 3435
 3361, 3058, 2945, 3270, 3357
 3362, 3400, 3143, 3322, 3332
 3363, 3402, 3436, 3437, 3438
 3364, 3402, 3436, 3406, 3437
 3365, 3402, 3437, 3439, 3438
 3366, 3402, 3439, 3440, 3195
 3367, 3403, 3402, 3200, 3331
 3368, 3402, 3397, 3200, 3440
 3369, 3400, 3322, 3143, 3401
 3370, 3200, 3197, 3322, 3195
 3371, 3081, 3441, 3401, 3323
 3372, 2960, 3082, 3081, 3139
 3373, 3081, 3139, 3082, 3442
 3374, 3081, 3442, 3143, 3443
 3375, 3048, 3081, 3323, 3429
 3376, 3444, 3445, 3446, 3447
 3377, 3444, 3448, 3449, 3450
 3378, 3444, 3446, 3448, 3451
 3379, 3452, 3444, 3453, 3454
 3380, 3444, 3454, 3449, 3448
 3381, 3444, 3450, 3447, 3451
 3382, 3119, 3030, 2978, 3028
 3383, 2901, 2903, 3067, 2977
 3384, 2895, 2977, 2899, 2897
 3385, 2898, 2961, 2897, 2963
 3386, 3094, 3066, 2984, 2911
 3387, 2904, 2910, 2978, 2908
 3388, 2984, 3252, 3094, 3092
 3389, 3225, 3090, 3227, 3068
 3390, 2895, 2907, 2904, 2909
 3391, 2905, 2988, 2972, 2985
 3392, 2900, 3273, 2902, 3088
 3393, 3289, 3292, 3284, 3290
 3394, 3455, 3456, 3339, 3457
 3395, 3455, 3339, 3340, 3457
 3396, 3455, 3370, 3374, 3456
 3397, 3455, 3370, 3458, 3374
 3398, 3455, 3374, 3458, 3459
 3399, 3455, 3460, 3459, 3461
 3400, 3462, 3455, 3370, 3458
 3401, 3463, 3464, 2966, 3465
 3402, 3466, 3464, 3467, 3463
 3403, 3466, 1627, 3467, 3464
 3404, 3468, 3463, 3032, 3469
 3405, 3468, 3464, 3466, 3463
 3406, 3469, 3463, 3032, 3470
 3407, 3471, 3298, 3209, 3299
 3408, 3242, 3299, 3305, 3300
 3409, 3299, 3472, 3154, 3304
 3410, 3299, 3304, 3305, 3473
 3411, 3299, 3474, 3471, 3475
 3412, 3299, 3471, 3474, 3209
 3413, 3228, 3104, 3476, 3477
 3414, 3478, 3193, 3479, 3480
 3415, 3477, 3481, 3482, 3104
 3416, 3477, 3483, 3369, 3104
 3417, 3477, 3481, 3484, 3485
 3418, 3477, 3103, 3486, 3228
 3419, 3477, 3228, 3486, 3487
 3420, 3477, 3476, 3228, 3487
 3421, 3202, 3207, 3300, 3205
 3422, 3202, 3300, 3209, 3211
 3423, 3207, 3244, 3300, 3205
 3424, 3207, 3209, 3473, 3346
 3425, 3207, 3473, 3488, 3346
 3426, 2918, 2927, 2981, 3018
 3427, 2952, 3349, 3489, 3134
 3428, 3490, 3430, 3491, 3492
 3429, 3434, 3493, 3403, 3433
 3430, 3001, 2950, 3004, 3059
 3431, 3002, 3003, 3131, 3005
 3432, 2918, 3006, 2927, 3018
 3433, 3494, 3495, 2053, 3496
 3434, 3137, 3134, 2939, 2908
 3435, 3004, 3022, 2952, 3349
 3436, 3497, 3498, 3499, 3500
 3437, 3497, 3501, 3498, 3502
 3438, 3497, 3503, 3504, 3505
 3439, 3497, 3505, 3504, 3506
 3440, 3023, 3236, 3231, 2948
 3441, 2948, 3070, 3025, 3236
 3442, 2953, 2954, 3023, 3022
 3443, 2952, 3021, 3073, 3489
 3444, 3020, 3025, 2948, 3070
 3445, 3497, 3503, 3507, 3508
 3446, 3503, 3509, 3507, 3510
 3447, 3503, 3505, 3511, 3504
 3448, 3503, 3512, 3513, 3505
 3449, 3503, 3513, 3514, 3515
 3450, 3503, 3514, 3513, 3516
 3451, 2897, 2942, 2935, 3427
 3452, 2915, 2916, 2927, 2919
 3453, 2977, 2935, 3176, 3177
 3454, 2899, 3176, 2977, 3067
 3455, 2967, 2969, 2968, 2962
 3456, 2898, 2962, 3083, 2963
 3457, 3068, 2901, 3067, 3066
 3458, 3008, 3307, 3129, 3357
 3459, 3130, 3349, 3133, 3517
 3460, 3130, 3131, 3517, 3518
 3461, 3008, 3307, 3005, 3129
 3462, 3005, 3307, 3519, 3129
 3463, 3520, 3494, 3496, 3495
 3464, 2938, 3058, 3008, 2940
 3465, 3001, 3201, 3007, 3018
 3466, 3001, 3005, 3306, 3003
 3467, 3130, 3138, 3136, 3129
 3468, 3008, 2940, 3002, 3001
 3469, 2895, 2901, 2904, 2905
 3470, 2991, 2990, 2989, 3099
 3471, 2947, 2912, 2990, 2986
 3472, 3235, 3023, 3236, 3231
 3473, 3231, 2947, 2949, 2948
 3474, 2949, 2954, 3218, 3023
 3475, 2949, 3333, 3231, 3521
 3476, 2949, 3231, 3218, 3521
 3477, 3045, 3333, 2949, 2982
 3478, 2924, 2985, 3316, 3257
 3479, 2964, 2928, 3055, 3056
 3480, 2980, 2993, 2992, 3233
 3481, 3212, 2986, 2989, 3317
 3482, 2982, 3044, 2987, 3320
 3483, 2924, 2915, 2995, 2929
 3484, 2992, 2947, 3232, 2994
 3485, 2912, 2948, 3232, 3071
 3486, 2980, 3320, 2982, 2987
 3487, 3088, 3273, 3522, 3090
 3488, 2969, 3225, 3067, 3066
 3489, 3225, 3066, 3068, 3067
 3490, 2903, 2936, 2977, 3078
 3491, 3090, 3227, 3089, 3103
 3492, 3086, 3090, 3088, 3091
 3493, 3083, 3355, 2961, 2963
 3494, 3350, 3523, 3524, 3354
 3495, 3084, 3083, 2965, 3356
 3496, 2898, 2963, 3083, 2961
 3497, 3356, 2965, 3276, 3083
 3498, 2949, 3231, 3023, 3218
 3499, 2956, 3083, 3354, 2961
 3500, 3350, 3398, 3356, 3085
 3501, 3085, 3352, 3375, 3350
 3502, 2957, 3268, 3429, 3525
 3503, 3526, 3527, 1039, 3478
 3504, 3358, 3376, 3268, 3269
 3505, 2977, 2904, 3078, 2934
 3506, 3177, 3427, 2963, 2897
 3507, 2942, 3009, 3528, 3267
 3508, 2942, 2961, 3528, 3427
 3509, 3030, 3038, 3037, 3036
 3510, 2941, 2944, 2934, 2942
 3511, 2944, 2937, 3009, 3016
 3512, 3529, 3530, 1115, 1142
 3513, 3100, 3103, 3104, 3101
 3514, 3100, 2970, 3101, 3106
 3515, 3252, 3092, 3319, 3368
 3516, 2971, 3318, 3531, 3532
 3517, 3225, 3101, 2970, 3226
 3518, 2969, 2972, 2971, 3252
 3519, 2988, 2972, 3128, 2965
 3520, 3094, 3066, 3102, 3252
 3521, 3318, 3252, 2984, 3316
 3522, 2967, 2972, 2955, 2965
 3523, 2969, 3252, 2971, 3102
 3524, 2972, 2965, 2973, 3128
 3525, 2967, 3274, 2962, 2968
 3526, 2972, 3252, 2984, 3318
 3527, 2897, 2977, 3177, 2935
 3528, 3084, 3083, 3356, 3085
 3529, 2988, 2972, 2985, 3257
 3530, 2904, 3078, 2978, 2903
 3531, 2962, 2965, 3083, 3276
 3532, 3057, 3331, 3322, 3332
 3533, 3400, 3402, 3331, 3322
 3534, 3200, 3331, 3428, 3403
 3535, 3331, 3042, 3533, 3330
 3536, 3331, 3428, 3403, 3533
 3537, 3200, 3428, 3493, 3403
 3538, 3200, 3440, 3392, 3195
 3539, 2984, 3319, 3092, 3317
 3540, 2955, 2972, 2988, 2965
 3541, 3534, 1087, 3535, 3536
 3542, 2984, 3318, 2985, 2972
 3543, 2984, 3252, 3092, 3319
 3544, 3086, 3094, 3092, 2989
 3545, 3086, 3092, 3094, 3096
 3546, 3008, 3005, 3307, 3007
 3547, 3197, 3007, 3201, 3018
 3548, 3008, 3007, 3307, 3329
 3549, 3007, 3216, 3295, 3201
 3550, 3307, 3513, 3512, 3519
 3551, 3307, 3512, 3516, 3192
 3552, 3307, 3537, 3129, 3357
 3553, 3001, 3003, 3216, 3059
 3554, 3306, 3430, 3003, 3432
 3555, 3001, 3006, 2918, 3018
 3556, 3002, 3136, 2940, 3129
 3557, 3306, 3512, 3285, 3538
 3558, 3512, 3509, 3196, 3502
 3559, 3307, 3513, 3537, 3516
 3560, 3306, 3432, 3519, 3538
 3561, 3008, 2940, 3357, 3129
 3562, 3306, 3432, 3538, 3285
 3563, 2984, 3315, 3319, 3317
 3564, 3225, 3103, 3090, 3094
 3565, 2924, 3255, 2995, 3056
 3566, 2986, 2912, 2990, 2989
 3567, 3031, 3030, 3035, 3036
 3568, 3002, 2939, 3137, 3134
 3569, 3197, 3199, 3042, 3018
 3570, 3081, 3539, 3401, 3441
 3571, 3048, 2957, 3139, 3429
 3572, 3048, 3081, 3322, 3323
 3573, 3057, 3322, 3331, 3042
 3574, 3057, 3331, 3330, 3042
 3575, 3081, 3322, 3401, 3143
 3576, 3200, 3428, 3520, 3493
 3577, 3331, 3042, 3428, 3533
 3578, 2982, 2949, 2981, 3333
 3579, 3428, 3041, 3043, 3042
 3580, 2918, 2950, 2946, 2913
 3581, 2980, 3045, 2982, 3320
 3582, 3140, 3141, 3055, 3540
 3583, 2981, 3017, 3018, 3199
 3584, 3124, 3125, 1389, 3122
 3585, 3410, 3069, 3541, 3124
 3586, 3035, 3125, 3124, 3122
 3587, 3070, 3069, 3412, 3097
 3588, 3530, 3535, 3534, 1114
 3589, 3007, 3197, 3191, 3329
 3590, 3006, 3007, 3008, 3329
 3591, 3001, 3059, 3216, 3201
 3592, 2946, 2906, 2913, 2910
 3593, 3197, 3428, 3042, 3199
 3594, 3042, 3428, 3542, 3043
 3595, 3046, 3042, 3043, 2982
 3596, 3322, 3428, 3042, 3197
 3597, 3042, 3428, 3041, 3199
 3598, 3048, 3323, 3064, 3429
 3599, 3048, 2957, 3429, 3064
 3600, 2986, 2989, 2906, 2912
 3601, 2928, 3057, 3081, 3143
 3602, 3140, 3330, 3057, 3332
 3603, 3268, 3358, 2943, 2956
 3604, 3161, 3543, 1638, 3544
 3605, 3161, 3155, 3529, 3534
 3606, 2991, 2902, 3031, 3121
 3607, 3121, 2989, 3087, 2991
 3608, 3078, 2977, 2903, 2904
 3609, 2977, 2903, 2904, 2901
 3610, 3088, 2989, 3087, 3121
 3611, 3036, 3035, 3069, 3037
 3612, 3225, 3227, 3090, 3103
 3613, 2930, 2931, 3118, 2932
 3614, 2930, 2932, 3118, 2937
 3615, 2930, 2978, 2975, 2934
 3616, 2920, 2976, 2945, 2940
 3617, 2978, 3038, 3074, 3079
 3618, 3534, 1088, 3545, 1115
 3619, 3028, 3546, 3119, 3547
 3620, 3121, 3028, 3273, 2902
 3621, 3009, 3012, 3548, 3528
 3622, 2942, 2961, 3267, 3528
 3623, 2944, 2943, 3011, 3009
 3624, 2944, 3016, 3009, 3013
 3625, 3534, 1115, 3545, 1116
 3626, 3306, 3519, 3307, 3512
 3627, 3190, 3198, 3199, 3295
 3628, 3215, 3059, 2954, 3218
 3629, 3215, 3003, 3348, 2954
 3630, 3215, 3216, 3214, 3430
 3631, 3140, 3255, 3056, 3330
 3632, 2920, 2908, 2939, 2909
 3633, 2924, 2995, 3255, 3044
 3634, 2982, 3043, 3045, 3333
 3635, 2949, 3059, 3218, 2954
 3636, 2928, 2915, 2927, 3056
 3637, 2938, 3006, 2918, 3001
 3638, 2948, 2949, 3023, 2954
 3639, 2953, 2951, 3021, 3020
 3640, 3549, 3550, 3551,  935
 3641, 3252, 3092, 3368, 3094
 3642, 2946, 2918, 2929, 2949
 3643, 2978, 3028, 3029, 3119
 3644, 2941, 2934, 2977, 2897
 3645, 3002, 3349, 3004, 3134
 3646, 3215, 3348, 3003, 3431
 3647, 3059, 3215, 3216, 3201
 3648, 2920, 2908, 2975, 2976
 3649, 3018, 3059, 3201, 3017
 3650, 3215, 3552, 3553, 3023
 3651, 3008, 3058, 3357, 2940
 3652, 2976, 3281, 3013, 3015
 3653, 2934, 2935, 2897, 2942
 3654, 2976, 3137, 3341, 3281
 3655, 2908, 2976, 3137, 3341
 3656, 3030, 3031, 3028, 3119
 3657, 3549, 2997, 3551, 3550
 3658, 3031, 3123, 3119, 3036
 3659, 2903, 3271, 2936, 3554
 3660, 3119, 3547, 3120, 3123
 3661, 3028, 3363, 3555, 3547
 3662, 3029, 2903, 3554, 3271
 3663, 3272, 3028, 3363, 3555
 3664, 1505, 1504, 1529, 3556
 3665, 3557, 3558, 3559, 3556
 3666, 3556,  349, 3557, 1528
 3667, 3556,   67,  680,   66
 3668, 3556, 1618,  348,   67
 3669, 3556,   66, 3560, 1618
 3670, 3561, 3272, 3562, 3563
 3671, 3504, 1849, 1842, 1848
 3672, 3561, 3564, 3565, 3563
 3673, 3561, 3555, 3566, 3567
 3674, 3561, 3568, 3565, 3564
 3675, 3561, 3272, 3566, 3555
 3676, 3569, 3561, 3570, 3546
 3677, 2933, 1914, 1864, 1888
 3678, 1349, 3571, 3564, 3568
 3679, 3571, 3564, 3568, 3561
 3680, 3561, 3555, 3567, 3570
 3681, 3561, 3555, 3570, 3546
 3682, 3042, 2995, 3046, 3330
 3683, 3197, 3198, 3200, 3428
 3684, 3043, 3520, 3041, 3428
 3685, 3042, 3542, 3428, 3533
 3686, 3493, 3434, 3533, 3428
 3687, 3428, 3199, 3520, 3041
 3688, 3102, 3369, 3103, 3094
 3689, 2967, 2970, 2974, 3275
 3690, 2970, 3226, 3275, 2968
 3691, 2970, 3275, 3106, 2974
 3692, 3369, 3368, 3102, 3100
 3693, 3304, 3154, 3572, 3472
 3694, 3154, 3573, 3472, 3475
 3695, 3154, 3572, 3472, 3573
 3696, 3154, 3573, 3157, 3572
 3697, 3154, 3573, 3475, 3162
 3698, 2988, 3257, 3055, 3128
 3699, 3574, 3550,  938, 3551
 3700, 3349, 3348, 3575, 3576
 3701, 2952, 3489, 3349, 3022
 3702, 3306, 3307, 3007, 3512
 3703, 3349, 3576, 3131, 3348
 3704, 3004, 3349, 2952, 3134
 3705, 3215, 2954, 3348, 3552
 3706, 3306, 3005, 3307, 3519
 3707, 3004, 3059, 2950, 2954
 3708, 3444, 3577, 3445, 3578
 3709, 3579,  955,  952,  175
 3710, 3580, 2104, 2077, 2078
 3711, 3581, 2105, 2078, 2079
 3712, 3577, 3582, 3578, 3453
 3713, 3577, 3583, 3445, 3578
 3714, 3025, 3024, 3023, 3584
 3715, 3574,  938, 3550,  939
 3716, 2948, 3236, 3025, 3023
 3717, 3025, 3236, 3235, 3023
 3718, 3025, 3409, 3585, 3586
 3719, 2961, 3427, 2963, 3355
 3720, 3427, 2963, 3355, 3587
 3721, 3427, 2935, 3177, 3588
 3722, 2961, 3358, 3267, 3528
 3723, 2961, 3355, 3358, 3589
 3724, 3590, 3591, 3326, 3592
 3725, 3590, 3593, 3321, 3594
 3726, 3590, 3595, 3593, 3594
 3727, 3590, 3287, 3596, 3597
 3728, 3182, 3598, 3599, 3600
 3729, 3590, 3594, 3591, 3286
 3730, 3590, 3591, 3288, 3286
 3731, 3272, 3601, 3602, 3565
 3732, 3602, 3565, 3563, 3272
 3733, 3272, 3565, 3563, 3561
 3734, 3565, 1350, 3563, 3564
 3735, 3565, 3601, 3603, 1352
 3736, 3565, 3604, 3601, 1353
 3737, 3605, 3606, 3607, 3608
 3738, 3605, 3419, 3609, 3413
 3739, 3605, 3610, 3419, 3416
 3740, 3605, 3607, 3606, 3610
 3741, 3611, 3612, 3609, 3605
 3742, 3605, 3611, 3612, 3607
 3743, 3417, 3415, 3424, 3613
 3744, 3417, 3614, 3615, 3616
 3745, 3417, 3614, 3418, 3615
 3746, 3417, 3617, 3413, 3611
 3747, 3615, 3617, 3418, 3417
 3748, 3618, 3619,  915,  914
 3749, 3549, 2997,  907, 3551
 3750, 3427, 2963, 2897, 2961
 3751, 3139, 3620, 3429, 3621
 3752, 3002, 3129, 3008, 3005
 3753, 2928, 3084, 3055, 3082
 3754, 3081, 3442, 3082, 3143
 3755, 3083, 2963, 3276, 3355
 3756, 3268, 3429, 3139, 2957
 3757, 3139, 3442, 3375, 3085
 3758, 1873,  936,  169, 3622
 3759, 3076, 3077, 3118, 2937
 3760, 3029, 3120, 3546, 3623
 3761, 2961, 3589, 3427, 3355
 3762, 3139, 3376, 3268, 2956
 3763, 3528, 2935, 2942, 3427
 3764, 3427, 3587, 1271, 3588
 3765, 3427, 3588, 3177, 3587
 3766, 2935, 2936, 3176, 3624
 3767, 2935, 3118, 2936, 3624
 3768, 2977, 3176, 2935, 2936
 3769, 3372, 3625, 3373, 3626
 3770, 3373, 3374, 3460, 3372
 3771, 3372, 3209, 3373, 3474
 3772, 3372, 3209, 3471, 3626
 3773, 3113, 3112, 3392, 3627
 3774, 3200, 3390, 3391, 3493
 3775, 3390, 3493, 3345, 3391
 3776, 3520, 3390, 3493, 3345
 3777, 3391, 3493, 3433, 3628
 3778, 3391, 3433, 3493, 3345
 3779, 3391, 3345, 3390, 2983
 3780, 3629, 3630, 3631, 3632
 3781, 3629, 3633, 3634, 3635
 3782, 3629, 3636, 3637, 3633
 3783, 3629, 3638, 3639,  696
 3784, 3629, 3638,  696, 3640
 3785, 3629, 3616, 3632, 3615
 3786, 3258, 2999, 3641, 1844
 3787, 3054, 3000, 3642, 3258
 3788, 1890, 2999, 3643, 1885
 3789, 3000, 3258, 2999, 2997
 3790, 3258, 3641, 2997, 3618
 3791, 1836, 3644, 3645, 1870
 3792, 3258, 3618, 3642, 3051
 3793, 3154, 3646, 3156, 3162
 3794, 3153, 3154, 3573, 3157
 3795, 3647, 3572, 3157, 3159
 3796, 3572, 3157, 3159, 3573
 3797, 3154, 3162, 3475, 3646
 3798, 3153, 3648, 3573, 3162
 3799, 3160, 3649, 3650, 3159
 3800, 3595, 3590, 3593, 3651
 3801, 3652, 3590, 3596, 3653
 3802, 3654,  702,  695,   99
 3803, 3655,  365,  364, 1532
 3804, 3591, 3286, 3594, 3656
 3805, 3590, 3326, 3591, 3594
 3806, 3590, 3592, 3326, 3653
 3807, 3591, 3458, 3657, 3658
 3808, 3591, 3656, 3458, 3658
 3809, 2931, 3659, 3660, 2933
 3810, 3029, 3546, 3028, 3271
 3811, 3112, 3109, 3391, 2983
 3812, 1801,  681,  102,  101
 3813, 3661, 3662, 3256, 3316
 3814, 2931, 2932, 3663, 3118
 3815, 2931, 3659, 3554, 3660
 3816, 3664, 3164,  707,  700
 3817, 3665, 3666, 3667, 3355
 3818, 3355, 3666, 3667, 3668
 3819, 3668, 3355, 1294, 3667
 3820, 3668, 1318, 3667, 1294
 3821, 3355, 3523, 3666, 3668
 3822, 3354, 3355, 3523, 3666
 3823, 3668, 1319, 3669, 1318
 3824, 3668, 3523, 3666, 3670
 3825, 3668, 1318, 3670, 3666
 3826, 3170, 3671, 3672, 3673
 3827, 3674, 3272, 3675, 3273
 3828, 3561, 3563, 3562, 3564
 3829, 3561, 3566, 3272, 3568
 3830, 3272, 3561, 3546, 3555
 3831, 3028, 3555, 3272, 3546
 3832, 3272, 3554, 3271, 3546
 3833, 3272, 3271, 3554, 3562
 3834, 3272, 3271, 3562, 3602
 3835, 1899, 3676, 3677, 3623
 3836, 3120, 3036, 3678, 3679
 3837, 3119, 3120, 3036, 3123
 3838, 3120, 3678, 3123, 3676
 3839, 3120, 3679, 3074, 3036
 3840, 3119, 3120, 3074, 3036
 3841, 3178, 3184, 3185, 3448
 3842, 3184, 3448, 3189, 3680
 3843, 3184, 3448, 3680, 3681
 3844, 3208, 3682, 3683, 3373
 3845, 3682, 3684, 3685, 3686
 3846, 3683, 3687, 3339, 3682
 3847, 3373, 3682, 3683, 3625
 3848, 3688, 2058, 2057, 2031
 3849, 3601, 3223, 1354, 1355
 3850, 3272, 3675, 3273, 3229
 3851, 3565, 1353, 3568, 3604
 3852, 3272, 3229, 3601, 3604
 3853, 3601, 3223, 1355, 3689
 3854, 3601, 3229, 3223, 3689
 3855, 3690, 3691, 3637, 3692
 3856, 3690, 3693, 3694, 3695
 3857, 3690, 3617, 3612, 3696
 3858, 3690, 3692, 3617, 3696
 3859, 3690, 3631, 3617, 3637
 3860, 3690, 3695, 3697, 3698
 3861, 3690, 3693, 3695, 3698
 3862, 3060, 3016, 3063, 3062
 3863, 3060, 3061, 3079, 3075
 3864, 3417, 3425, 3418, 3699
 3865, 3415, 3165, 3163, 3164
 3866, 3415, 3163, 3424, 3164
 3867, 3417, 3039, 3415, 3613
 3868, 3417, 3616, 3632, 3039
 3869, 3416, 3413, 3417, 3415
 3870, 3414, 3415, 3165, 3163
 3871, 3037, 3072, 3343, 3073
 3872, 3038, 3342, 3343, 3079
 3873, 3343, 3072, 3036, 3700
 3874, 3418, 3615, 3701, 3617
 3875, 3167, 3165, 3688, 3164
 3876, 3702, 3617, 3692, 3703
 3877, 3417, 3413, 3617, 3418
 3878, 3617, 3413, 3609, 3703
 3879, 3704, 3607, 3610, 2005
 3880, 1566,  392, 3705, 2105
 3881, 3035, 3037, 3071, 3069
 3882, 3706, 3121, 3122, 3123
 3883, 3121, 3123, 3706, 3363
 3884, 3121, 3522, 3363, 3706
 3885, 3031, 3123, 3121, 3363
 3886, 3497, 3505, 3502, 3509
 3887, 3512, 3505, 3285, 3538
 3888, 3707, 3538, 3511, 3513
 3889, 3538, 3511, 3513, 3505
 3890, 3505, 3506, 3708, 3504
 3891, 3512, 3505, 3502, 3285
 3892, 3505, 3538, 3708, 3506
 3893, 2932, 3076, 3709, 3168
 3894, 3029, 3659, 2931, 2933
 3895, 2930, 3016, 2932, 2937
 3896, 3710, 3361, 3711, 1823
 3897, 3164,  706, 3712,  707
 3898, 2948, 3236, 3232, 3070
 3899, 3236, 3324, 3232, 3070
 3900, 3325, 3071, 3098, 3232
 3901, 3232, 3213, 2994, 2990
 3902, 3232, 3070, 3325, 3071
 3903, 3503, 3713, 3511, 3515
 3904, 3707, 3513, 3714, 3519
 3905, 2059, 2058, 3715, 3610
 3906, 3519, 3432, 3716, 3717
 3907, 3519, 3538, 3432, 3717
 3908, 3718, 1838, 3644, 1780
 3909, 3718, 3719, 3720, 1924
 3910, 3718, 3720, 1838, 1785
 3911, 3718, 1925,  435,  434
 3912, 3718,  434, 1926, 1925
 3913, 3721, 3718, 3719, 3644
 3914, 3718, 3721, 1926, 1780
 3915, 3171, 3722, 3559, 3723
 3916, 3171, 3724, 3170, 3673
 3917, 1866, 3725, 3726, 3636
 3918, 3725, 3726, 3636, 3637
 3919,  328, 3541, 3410, 1745
 3920, 3541, 1745,  328,  327
 3921, 3541,  327, 1750, 1745
 3922, 3541, 3125, 3727, 1365
 3923, 3541, 3069, 3728, 3126
 3924, 3124, 1389, 3125, 1365
 3925, 3124, 1365, 3541, 1366
 3926, 3541, 3410, 1745, 3728
 3927, 3454, 3729, 3730, 3731
 3928, 3454, 3449, 3448, 3732
 3929, 3419, 3609, 3413, 3733
 3930, 3178, 3185, 3454, 3448
 3931, 3454, 3734, 3729, 3731
 3932, 3454, 3735, 3453, 3452
 3933, 3454, 3730, 3736, 3735
 3934, 3737, 3738, 3739,  173
 3935, 3737, 3739,  174,  173
 3936, 3740, 3741, 3290, 3737
 3937, 3737, 3739, 3742,  174
 3938, 3737, 3743, 3739, 3291
 3939, 3437, 3744, 3439, 1066
 3940, 3437, 3744, 1093, 3745
 3941, 3746, 1654, 1657, 1576
 3942, 1094, 3747, 3436, 1093
 3943, 3747, 3436, 1093, 3437
 3944, 3740,  407, 3189, 3748
 3945, 3740, 3749,  408, 3290
 3946, 3740, 3748, 3750,  407
 3947, 3740, 3749, 3179, 3188
 3948, 3084, 2965, 3266, 3356
 3949, 2945, 2940, 3278, 3357
 3950, 2963, 3274, 3422, 2968
 3951, 2956, 3358, 3376, 3268
 3952, 2963, 3276, 3423, 3422
 3953, 3427, 2963, 3587, 3177
 3954, 3423, 3587, 3668, 2963
 3955, 3315, 3147, 3751, 3319
 3956, 3164, 3752,  706,  699
 3957, 2971, 2972, 2973, 3318
 3958, 2980, 2987, 2994, 2993
 3959, 3148, 2987, 3149, 3147
 3960, 2987, 3317, 3149, 3147
 3961, 3343, 3074, 3079, 3679
 3962, 3343, 3072, 3700, 3753
 3963, 3072, 2952, 3021, 3073
 3964, 3072, 3700, 3126, 3036
 3965, 3037, 3343, 3072, 3036
 3966, 3754,  309, 1328, 1602
 3967, 3560, 1618, 1591, 1713
 3968, 2966, 1629, 3464, 1627
 3969, 2966, 1111, 3755, 1138
 3970,  221, 1137, 1553, 1557
 3971, 3467, 1557, 1137, 2966
 3972, 2966, 3755, 1111, 3597
 3973, 3463, 3467, 2966, 3464
 3974, 2966, 3597, 3465, 3755
 3975, 3756, 3445, 3757, 3758
 3976, 3445, 3757, 3759, 3756
 3977, 3579, 3583, 3445, 3577
 3978, 3445, 3579, 3756, 3759
 3979, 3454, 3453, 3736, 3444
 3980, 3577, 3583, 3582, 3760
 3981, 3577, 3578, 3582, 3583
 3982, 3447, 3761, 3578, 3445
 3983, 3578, 3444, 3447, 3445
 3984, 3444, 3762, 3763, 3449
 3985, 3444, 3447, 3446, 3451
 3986, 3445, 3757, 3761, 3759
 3987, 3419, 3764, 3765, 3606
 3988, 3605, 3609, 3764, 3612
 3989, 3605, 3419, 3764, 3609
 3990, 3766, 3764, 3612, 3608
 3991, 3419, 3733, 3420, 3764
 3992, 3170, 1668, 3671, 1665
 3993, 3419, 3610, 3165, 3416
 3994, 2958, 2921, 1639, 3169
 3995, 3671, 3724, 1609, 3673
 3996, 3019, 3163, 3171, 3165
 3997, 3019, 3767, 3163, 3164
 3998, 3767, 3171, 3664, 3019
 3999, 2922, 2959, 3664, 2958
 4000, 3165, 3688, 2031, 3167
 4001, 3167, 3715, 3165, 3166
 4002, 3167, 2058, 3175, 3688
 4003, 3355, 3523, 3350, 3354
 4004, 3420, 3672, 3768, 3673
 4005, 3668, 1295, 3587, 3423
 4006, 3668, 3587, 1295, 1294
 4007, 3668, 3423, 3276, 3421
 4008, 3358, 3269, 3268, 3267
 4009, 3358, 3354, 1071, 3665
 4010, 3358, 3267, 1044, 3269
 4011, 3358, 3354, 3376, 1071
 4012, 3227, 3689, 3228, 3229
 4013, 3227, 3228, 3689, 3487
 4014, 3220, 3068, 3229, 3222
 4015, 3220, 3225, 3067, 3226
 4016, 3227, 3228, 3487, 3486
 4017, 3227, 3486, 3103, 3228
 4018, 3111, 3769, 3757, 3115
 4019, 3110, 3108, 3112, 3111
 4020, 3111, 3757, 3756, 3759
 4021, 3111, 3116, 1118, 3770
 4022, 3111, 3769, 3113, 3756
 4023, 3169, 3771, 3772, 2087
 4024,  175,  176, 3770, 3756
 4025, 3111, 3759, 3756,  176
 4026, 2959, 2958, 2084, 3175
 4027, 3167, 2958, 3175, 2058
 4028, 3175, 2057, 3712, 3688
 4029, 3175, 2084, 2085, 2958
 4030, 3175, 2058, 2958, 2085
 4031, 3171, 3420, 3426, 3768
 4032, 3171, 3165, 3163, 3420
 4033, 3171, 3420, 3673, 3170
 4034, 3773, 3671, 1526, 3774
 4035, 3773, 3671, 1603,  351
 4036, 3773, 1601,  353,  352
 4037, 3773, 1601, 1524,  353
 4038, 3775, 2016, 2043, 2042
 4039, 3773, 3776, 1524, 3777
 4040, 3773, 1603,  352,  351
 4041, 3312, 3778, 3313, 3314
 4042, 1477, 3779, 3780, 1478
 4043, 1228, 3781, 1169, 3782
 4044, 3312, 3783, 3784, 1499
 4045, 3312, 3783, 1499, 3785
 4046, 3312, 3783, 3785, 3786
 4047, 3144, 3787, 3147, 3145
 4048, 3312, 3313, 3786, 3311
 4049, 3308, 3313, 3312, 3311
 4050, 3783, 3312, 3778, 3313
 4051, 3557, 3724, 3560, 3559
 4052, 3552, 3788, 3789, 3790
 4053, 3552, 3789, 3024, 3790
 4054, 1563,  391, 3791, 2104
 4055, 3552, 3792, 3431, 3553
 4056, 3793, 1403, 3794, 1379
 4057, 3793, 3794, 1403, 1404
 4058, 3795, 3794, 3796, 1379
 4059, 3793, 1404, 3797, 3798
 4060, 3799, 3794, 3796, 3795
 4061, 3793, 3800, 3801, 3802
 4062, 3793, 3800, 3799, 3794
 4063, 3793, 3800, 3794, 3801
 4064, 3803, 3049, 1376, 3804
 4065, 3803, 3049, 3804, 3805
 4066, 3803, 3806, 3807, 3808
 4067, 3237, 3809, 3240, 3014
 4068, 3803, 1757, 3049, 3805
 4069, 1757, 3049, 1820, 3803
 4070, 3009, 3528, 3548, 3076
 4071, 3803, 1930, 1758, 1931
 4072, 3803, 1931, 3805, 3806
 4073, 3609, 3611, 3413, 3617
 4074, 3617, 3701, 3631, 3615
 4075, 3690, 3617, 3611, 3612
 4076, 3617, 3418, 3702, 3701
 4077, 3640, 3615, 3637, 3810
 4078, 3637, 3810, 3701, 3811
 4079, 3812, 3691, 3811, 3637
 4080, 3629, 3615, 3637, 3640
 4081, 3615, 3637, 3810, 3701
 4082, 3637, 3811, 3701, 3692
 4083, 3629, 3633, 3637, 3631
 4084, 2928, 3055, 3140, 3082
 4085, 3140, 3056, 3255, 3055
 4086, 3140, 3082, 3141, 3142
 4087, 3084, 3813, 3055, 3263
 4088, 3084, 3128, 3264, 3265
 4089, 3055, 3257, 3255, 3814
 4090, 3055, 3264, 3128, 3814
 4091, 2927, 3322, 3006, 3048
 4092, 3055, 3814, 3255, 3540
 4093, 3358, 3027, 3528, 3589
 4094, 2916, 2960, 2964, 2928
 4095, 2943, 3267, 2961, 3358
 4096, 2961, 3589, 3528, 3427
 4097, 3815, 3809,  992,  991
 4098, 3816, 3525, 3817, 3064
 4099, 2945, 3357, 3245, 3270
 4100, 2957, 3270, 3525, 3064
 4101, 2945, 3011, 3359, 3818
 4102, 3270, 2945, 3359, 3245
 4103, 3270, 3817, 3064, 3329
 4104, 3270, 3817, 3357, 3245
 4105, 3463, 2966, 3470, 3465
 4106, 3463, 3651, 3465, 3470
 4107, 1331, 3464, 3466, 3468
 4108, 3463, 3466, 3032, 3467
 4109, 3469, 3819, 3593, 3820
 4110, 3470, 3469, 3820, 3032
 4111, 3469, 3593, 1307, 3321
 4112, 3469, 3651, 3593, 3321
 4113, 3465, 3821, 3822, 3823
 4114, 3463, 3470, 2966, 3467
 4115, 3465, 3597, 3470, 3651
 4116, 3824, 2966, 1629, 3464
 4117, 3464, 3465, 3824, 2966
 4118, 3463, 3470, 3469, 3651
 4119, 2952, 2950, 3134, 3073
 4120, 2924, 2988, 3257, 3255
 4121, 2946, 2954, 2953, 2952
 4122, 3411, 3069, 3410, 3020
 4123, 3026, 1268, 1292, 1073
 4124, 2953, 3024, 3025, 3344
 4125, 1293, 1292, 3667, 3026
 4126, 3001, 3201, 3018, 3059
 4127, 3025, 3070, 3586, 3236
 4128, 2967, 3274, 2968, 3275
 4129, 2967, 2965, 3266, 2973
 4130, 2965, 3276, 3274, 3266
 4131, 2963, 3423, 3177, 3422
 4132, 3274, 3275, 3825, 2968
 4133, 3043, 3826, 3827, 3581
 4134, 3580, 2105, 2104, 2078
 4135, 3012, 3828, 1017,  990
 4136, 3238, 3012, 3014, 3010
 4137, 3012, 3829, 3010, 3238
 4138, 3012,  990, 3237, 3033
 4139, 3012, 3267, 1017, 3828
 4140, 3012, 3011, 3010, 3829
 4141, 3372, 3592, 3830, 3831
 4142, 1268, 1045, 1269, 3832
 4143, 3460, 3372, 3625, 3373
 4144, 3456, 3462, 3457, 3455
 4145, 3374, 3592, 3394, 3833
 4146, 3455, 3462, 3461, 3458
 4147, 3833, 3374, 3458, 3370
 4148, 3374, 3592, 3458, 3459
 4149, 3834, 3537, 3818, 3835
 4150, 3836, 3537, 3834, 3837
 4151, 3513, 3537, 3838, 3515
 4152, 3516, 3537, 3838, 3513
 4153, 3805, 1757, 1932, 1931
 4154, 3839, 3357, 3537, 3516
 4155, 3516, 3839, 3838, 3537
 4156, 3307, 3129, 3537, 3513
 4157, 3537, 3836, 3838, 3515
 4158, 3537, 3839, 3838, 3245
 4159, 3357, 3278, 3818, 3537
 4160, 3668, 1295, 3423, 1319
 4161, 3126, 3035, 3069, 3036
 4162, 3123, 3727, 3678, 3126
 4163, 3840, 3674, 3706, 3123
 4164, 3670, 3666, 3667, 1099
 4165, 2898, 3083, 2960, 2956
 4166, 3120, 3123, 3547, 3676
 4167, 3841, 1003, 3340, 3461
 4168, 3841, 3842, 1002, 3657
 4169, 3841, 3843, 3844, 3842
 4170, 3841, 3843, 3461, 3340
 4171, 3841, 3842, 3844,  975
 4172, 3841, 3461, 3843, 3842
 4173, 3684, 3208, 3685, 3845
 4174, 3684, 3208, 3488, 3346
 4175, 3710, 3845, 3377, 3684
 4176, 3684, 3346, 3248, 3347
 4177, 3684, 3373, 3347, 3371
 4178, 3682, 3684, 3456, 3373
 4179, 3684, 3371, 3456, 3373
 4180, 3202, 3211, 3846, 1008
 4181, 3202, 3203, 1008, 3846
 4182, 3203, 3847, 3205, 3848
 4183, 3667, 3026, 3665, 1293
 4184, 2982, 3333, 3041, 3043
 4185, 2946, 3059, 2918, 2949
 4186, 3045, 3320, 3580, 3044
 4187, 3045, 3320, 3849, 3580
 4188, 3045, 3333, 3850, 3851
 4189, 3045, 3581, 3043, 3044
 4190,  304, 1332,  305, 1610
 4191, 3466, 3852, 1551, 1613
 4192, 1610, 1332,  305, 1331
 4193, 1308, 1307, 3468, 3819
 4194, 3464, 3469, 3468, 1331
 4195, 3469, 3651, 1306, 1330
 4196, 3463, 3470, 3467, 3032
 4197, 3466, 1553, 3032, 3467
 4198, 3402, 3401, 3438, 3323
 4199, 3437, 3438, 1066, 3439
 4200, 3437, 3744, 3440, 3439
 4201, 3744, 3439, 1066, 1065
 4202, 3744, 3853, 3440, 3439
 4203, 3744, 3854, 3853, 1065
 4204, 3855, 1962, 1988, 1961
 4205, 3442, 3143, 3856, 3082
 4206, 3857, 1531, 3858, 1539
 4207, 3352, 3859, 3399, 3442
 4208, 3026, 1046, 1045, 1268
 4209, 2917, 3056, 2915, 2928
 4210, 3856, 3442, 3399, 3859
 4211, 3859, 3442, 3620, 3443
 4212, 3352, 3442, 3620, 3859
 4213, 3860, 1461, 3145, 1485
 4214, 3043, 3850, 3333, 3861
 4215, 3862, 3863, 3385, 3864
 4216, 3862, 3155, 3385, 3865
 4217, 3862, 3866, 3863, 3864
 4218, 3862, 3864, 1144, 3866
 4219, 3862, 1143, 3864, 3529
 4220, 3862, 3529, 1116, 1143
 4221, 1763, 3380, 1756, 1825
 4222, 3867,  367, 1541, 1510
 4223, 3868,  972, 3380, 1756
 4224, 3868, 1822, 3869, 1759
 4225, 3870, 3871, 3868,  972
 4226, 3871, 3868,  972, 3380
 4227, 1822, 3869, 3872, 3873
 4228, 3868, 3869,  973, 1759
 4229, 3873, 3869, 3872, 3870
 4230, 2944, 2942, 3009, 2937
 4231, 2995, 3330, 3056, 3255
 4232, 2895, 2955, 2899, 2901
 4233, 3867, 1541,  367, 1535
 4234, 3255, 3814, 3257, 3874
 4235, 3255, 3874, 3257, 3256
 4236, 3875, 3255, 3540, 3330
 4237, 3255, 3330, 3875, 3046
 4238, 2995, 3255, 3046, 3330
 4239, 2924, 3256, 3661, 3254
 4240, 2960, 3048, 3139, 3081
 4241, 3497, 3876, 3498, 3500
 4242, 3498, 3877, 3878, 3499
 4243, 3877, 3498, 3500, 3499
 4244, 3498, 3879, 3741, 3260
 4245, 1174, 1180, 1204,  251
 4246, 3498, 3501, 3499, 3880
 4247, 1204, 1228, 3782, 3781
 4248, 2973, 3881, 3882, 3883
 4249, 3290, 3741, 3880, 3502
 4250, 3498, 3880, 3499, 3260
 4251, 3884, 1509, 3751, 1541
 4252, 3461, 3460, 3459, 1004
 4253, 3460, 3340, 3461, 3455
 4254, 3455, 3460, 3340, 3339
 4255, 3340,  977, 3457, 3339
 4256, 3340, 3461, 1003, 1004
 4257, 3340, 1769,  976, 3885
 4258, 3841, 3885, 3340,  976
 4259, 3841,  976, 3340, 1003
 4260, 3116, 3745, 3393, 3396
 4261, 3745, 3396, 3116, 1119
 4262, 3886, 3887, 1485, 1509
 4263, 3745, 3854, 1091, 1118
 4264, 1118, 3854, 1091, 3770
 4265, 3110, 3396, 1587, 3116
 4266, 3316, 3888, 3531, 3662
 4267, 3622, 2998, 3889, 3000
 4268, 2998, 3622,  940, 3598
 4269, 3889,  171, 3878, 2998
 4270, 3306, 3005, 3519, 3131
 4271, 3538, 3492, 3285, 3432
 4272, 3492, 3708, 3890, 3717
 4273, 3343, 3679, 3342, 3753
 4274, 3858,  390, 1539, 1531
 4275, 3519, 3538, 3707, 3513
 4276, 3512, 3192, 3891, 3516
 4277, 3526, 3191, 3527, 3478
 4278, 3191, 3527, 3478, 3192
 4279, 3190, 3193, 3192, 3191
 4280, 3190, 3007, 3192, 3196
 4281, 3007, 3307, 3192, 3512
 4282, 3192, 3329, 3527, 3516
 4283, 3184, 3892, 3185, 3448
 4284, 3178, 3180, 3758, 3736
 4285, 3184, 3893, 3185, 3892
 4286, 1532,  390, 3655, 1531
 4287, 3894, 3895, 3729, 3182
 4288, 3893, 3574, 3182, 3894
 4289, 3893, 3185, 3892, 3895
 4290, 3182, 3895, 3729, 3185
 4291, 3185, 3893, 3182, 3895
 4292, 3261, 3878, 3879, 2998
 4293, 3054, 3000, 3896, 3260
 4294, 3261, 3000, 3260, 3878
 4295, 3261, 3183, 3599, 3879
 4296, 3261, 3183, 3749, 3262
 4297, 3261, 3599, 3182, 2998
 4298, 3261, 3897, 3182, 3183
 4299, 3524, 1071, 3354, 3665
 4300, 3524, 3354, 3376, 3375
 4301, 3524, 3375, 1070, 1097
 4302, 3442, 3085, 3352, 3375
 4303, 3350, 3524, 3523, 3353
 4304, 3524, 3375, 1097, 3353
 4305, 3350, 3524, 3353, 3375
 4306, 3029, 3271, 3028, 2903
 4307, 3028, 3031, 3121, 3363
 4308, 3655, 2102,  389, 2101
 4309, 3121, 3273, 3363, 3522
 4310, 3090, 3273, 3229, 3068
 4311, 3086, 3094, 3090, 3089
 4312, 3522, 3090, 3091, 3088
 4313, 2900, 3090, 3066, 3068
 4314, 2900, 3273, 3090, 3068
 4315, 2971, 3318, 2973, 3531
 4316, 3318, 3882, 3128, 2973
 4317, 3318, 3257, 3888, 3316
 4318, 2985, 3257, 3318, 3316
 4319, 3252, 3318, 3532, 3316
 4320, 3455, 3374, 3460, 3456
 4321, 3456, 3370, 3898, 3899
 4322, 3456, 3457, 1835, 3900
 4323, 3456, 1835, 3901, 3900
 4324, 3456, 3899, 3462, 3370
 4325, 3304, 3473, 3472, 3303
 4326, 3304, 3303, 3173, 3242
 4327, 3304, 3173, 3172, 3296
 4328, 3303, 3305, 3242, 3304
 4329, 3845, 3377, 3684, 3488
 4330, 3684, 3710, 3686, 3902
 4331, 3207, 3206, 3488, 3903
 4332, 3207, 3305, 3488, 3473
 4333, 3207, 3903, 3205, 3206
 4334, 3684, 3845, 3488, 3208
 4335, 3904, 3206, 3362, 3903
 4336, 3711, 3206, 3362, 3904
 4337, 3081, 3443, 3401, 3539
 4338, 3081, 3401, 3322, 3323
 4339, 3400, 3332, 3331, 3403
 4340, 2927, 3057, 3042, 3322
 4341, 3400, 3402, 3401, 3406
 4342, 3400, 3403, 3402, 3397
 4343, 3400, 3406, 3401, 3405
 4344, 3405, 3401, 3443, 3905
 4345, 3401, 3323, 3441, 3438
 4346, 3401, 3402, 3436, 3406
 4347, 3906, 3332, 3435, 3533
 4348, 3323, 3006, 3329, 3197
 4349, 3151, 3907, 3150, 1487
 4350, 3200, 3403, 3493, 3397
 4351, 3403, 3397, 3404, 3908
 4352, 3400, 3404, 3397, 3406
 4353, 3909, 1173, 1174, 3782
 4354, 3400, 3403, 3910, 3332
 4355, 3911, 3912, 3913, 3310
 4356, 3911, 3913, 2094, 2093
 4357, 3911, 1555, 3914, 1617
 4358, 3911, 1550,  381,  382
 4359, 3911, 3914, 2094, 3912
 4360, 3911, 2094, 1555,  382
 4361, 2944, 3010, 3015, 3013
 4362, 3012, 3011, 3829, 3267
 4363, 3184, 3915, 3897, 3916
 4364, 3893, 3642, 3917, 3918
 4365, 3184, 3893, 3892, 3916
 4366, 3185, 3732, 3448, 3892
 4367, 3454, 3732, 3185, 3734
 4368, 3185, 3729, 3734, 3895
 4369, 3537, 3818, 3835, 3278
 4370, 3129, 3278, 3537, 3279
 4371, 3278, 3919, 3015, 3818
 4372, 3367, 1685, 3531, 1708
 4373, 3108, 3112, 2983, 3109
 4374, 3111, 3115, 3920, 3114
 4375, 3113, 3743, 3748, 3627
 4376, 3854, 3113, 3742, 3770
 4377, 3111, 3116, 1589, 1118
 4378, 3113, 3743, 3392, 3742
 4379, 3921, 1630, 1605, 1632
 4380, 3417, 3415, 3418, 3425
 4381, 3417, 3617, 3611, 3615
 4382, 3611, 3612, 3607, 3922
 4383, 3611, 3630, 3632, 3631
 4384, 3617, 3612, 3609, 3611
 4385, 3605, 3611, 3607, 3416
 4386, 3200, 3195, 3392, 3194
 4387, 3440, 3392, 3853, 3854
 4388, 3313, 3783, 3786, 3923
 4389, 3112, 3200, 3391, 3397
 4390, 3402, 3440, 3437, 3406
 4391, 3402, 3323, 3438, 3439
 4392, 3440, 3195, 3193, 3392
 4393, 3437, 3393, 3745, 3747
 4394, 3437, 3393, 3747, 3406
 4395, 3414, 3420, 3419, 3413
 4396, 3419, 3765, 3764, 3924
 4397, 3419, 3715, 3165, 3610
 4398, 3019, 3165, 3171, 3166
 4399, 3414, 3165, 3420, 3163
 4400, 3419, 3165, 3166, 3420
 4401, 3925, 3313, 3314, 3926
 4402, 3007, 3196, 3295, 3216
 4403, 3295, 3294, 3198, 3494
 4404, 3306, 3512, 3196, 3285
 4405, 3007, 3191, 3192, 3329
 4406, 3190, 3294, 3295, 3293
 4407, 3190, 3293, 3194, 3294
 4408, 3295, 3293, 3289, 3196
 4409, 3390, 2082, 2983, 2081
 4410, 3390, 2082, 3927, 3389
 4411, 3390, 3496, 3927, 2081
 4412, 3928, 3390, 3392, 3194
 4413, 3390, 3194, 3928, 3927
 4414, 3448, 3449, 3450, 3732
 4415, 3178, 3184, 3448, 3189
 4416, 3448, 3681, 3732, 3450
 4417, 3444, 3454, 3448, 3736
 4418, 3453, 3736, 3444, 3577
 4419, 3454, 3734, 3185, 3729
 4420, 3258, 3000, 3642, 2997
 4421, 3054, 3261, 3260, 3262
 4422, 2999, 3000, 3622, 3643
 4423, 3889, 3000, 3643, 3622
 4424, 2997, 3598, 2999, 2998
 4425, 3431, 3929, 3432, 3430
 4426, 3003, 3431, 3432, 3430
 4427, 3552, 3788, 3431, 3792
 4428, 3552, 3553, 3023, 3584
 4429, 3552, 3553, 3789, 3792
 4430, 3215, 3431, 3552, 3348
 4431, 3215, 3930, 3431, 3430
 4432, 3431, 3430, 3930, 3929
 4433, 3784, 1500, 1499, 1475
 4434, 3190, 3193, 3293, 3196
 4435, 3392, 3440, 3853, 3193
 4436, 3193, 3440, 3853, 3439
 4437, 3323, 3195, 3402, 3322
 4438, 3393, 3397, 3440, 3392
 4439, 3402, 3440, 3406, 3397
 4440, 3931, 3162, 3648, 3932
 4441, 3162, 3648, 3932, 3153
 4442, 3153, 3156, 3161, 3162
 4443, 3161, 3155, 3543, 3529
 4444, 3161, 3543, 3544, 3933
 4445, 3161, 3530, 3543, 3933
 4446, 3932, 3161, 3153, 3159
 4447, 3161, 3543, 3384, 1638
 4448, 3161, 3384, 3160, 1638
 4449, 3573, 3472, 3475, 3250
 4450, 1544,  369, 1508,  368
 4451, 3572, 3934, 3647, 3935
 4452, 3573, 3251, 3572, 3186
 4453, 3572, 3936, 3472, 3186
 4454, 3572, 3174, 3472, 3936
 4455, 3937,  423, 3938,  333
 4456, 3572, 3174, 3304, 3472
 4457, 3935, 3251, 3936, 3572
 4458, 1476, 3939, 1475, 1500
 4459, 3273, 3522, 3674, 3363
 4460, 3272, 3229, 3604, 3675
 4461, 3028, 3121, 3031, 2902
 4462, 3090, 3273, 3522, 3940
 4463, 3273, 3229, 3675, 3940
 4464, 3199, 3201, 3941, 3017
 4465, 3941, 3942, 3201, 3199
 4466, 3199, 3494, 3520, 3495
 4467, 3057, 3056, 2995, 3330
 4468, 3018, 3199, 3017, 3201
 4469, 3428, 3520, 3199, 3198
 4470, 3200, 3390, 3493, 3520
 4471, 3331, 3332, 3330, 3533
 4472, 3042, 3533, 3046, 3542
 4473, 3041, 3043, 3333, 3861
 4474, 3199, 3041, 3333, 3495
 4475, 3519, 3131, 3129, 3518
 4476, 3005, 3129, 3519, 3131
 4477, 3007, 3196, 3512, 3192
 4478, 3307, 3537, 3357, 3516
 4479, 3306, 3003, 3430, 3216
 4480, 3130, 3136, 3132, 3137
 4481, 3278, 3280, 3015, 3919
 4482, 1314, 1128, 1102, 1129
 4483, 3818, 3537, 3245, 3357
 4484, 3129, 3837, 3513, 3714
 4485, 3130, 3129, 3518, 3138
 4486, 3537, 3278, 3129, 3357
 4487, 3295, 3198, 3199, 3494
 4488, 3201, 3215, 3216, 3214
 4489, 3201, 3216, 3941, 3214
 4490, 2940, 3357, 3129, 3278
 4491, 3002, 3004, 3349, 3003
 4492, 2981, 3042, 3041, 3199
 4493, 3861, 3520, 3041, 3043
 4494, 3197, 3198, 3428, 3199
 4495, 3006, 3329, 3064, 3323
 4496, 3329, 3197, 3191, 3323
 4497, 3445, 3758, 3756, 3736
 4498, 3178, 3758, 3179, 3189
 4499, 3758, 3179, 3189, 3748
 4500, 3446, 3758, 3769, 3757
 4501, 3758, 3179, 3748, 3943
 4502, 3392, 3397, 3440, 3200
 4503, 3944, 2007, 3945, 2008
 4504, 3112, 3395, 3393, 3397
 4505, 3391, 3628, 3433, 3219
 4506, 3200, 3390, 3520, 3198
 4507, 3434, 3946, 3428, 3493
 4508, 3403, 3434, 3435, 3533
 4509, 3493, 3434, 3946, 3433
 4510, 3493, 3397, 3908, 3628
 4511, 3493, 3520, 3345, 3946
 4512, 3947, 3040, 3416, 3632
 4513, 3040, 1977, 3632, 3947
 4514, 1950, 3632, 3948, 1949
 4515, 1949, 3632, 3948, 3639
 4516, 2003, 3752, 2004, 3039
 4517, 3639, 3040, 1949, 3632
 4518, 3632, 3040, 1949, 1950
 4519, 3040, 3949, 2003, 3039
 4520, 3420, 3673, 3170, 3672
 4521, 3414, 3426, 3420, 3413
 4522, 3420, 3170, 3924, 3672
 4523, 3419, 3420, 3924, 3764
 4524, 3420, 3764, 3672, 3924
 4525, 2930, 3060, 2933, 2932
 4526, 3029, 3659, 3623, 3546
 4527, 3074, 3075, 3079, 3679
 4528, 3554, 2936, 3029, 2931
 4529, 3029, 3554, 2931, 3659
 4530, 3030, 3119, 2978, 3036
 4531, 2896, 2943, 2942, 2961
 4532, 3029, 3119, 3028, 3546
 4533, 3006, 2938, 3058, 3008
 4534, 3029, 3120, 3623, 3074
 4535, 3676, 3677, 3623, 3120
 4536, 3343, 3074, 3679, 3036
 4537, 3029, 3120, 3119, 3546
 4538, 3038, 3037, 3343, 3073
 4539, 2986, 2994, 3212, 2990
 4540, 3148, 3149, 2987, 2993
 4541, 2924, 2987, 3661, 2985
 4542, 3317, 3145, 3149, 3147
 4543, 3779, 3939, 1476, 1477
 4544, 2987, 2985, 3315, 3661
 4545, 3252, 3532, 3319, 3316
 4546,  675,   85, 1409, 1385
 4547, 2984, 3317, 3092, 2989
 4548, 2987, 3147, 3315, 3317
 4549, 3510, 3512, 3516, 3503
 4550, 3497, 3503, 3509, 3507
 4551, 3479, 3192, 3193, 3478
 4552, 3876, 3509, 3497, 3502
 4553, 3509, 3502, 3876, 3950
 4554, 3503, 3512, 3505, 3509
 4555, 3192, 3509, 3479, 3196
 4556, 3505, 3285, 3538, 3506
 4557, 3682, 3456, 3460, 3373
 4558, 3512, 3285, 3502, 3196
 4559, 3014, 3237, 3238, 3241
 4560, 3010, 3919, 3239, 3951
 4561, 3009, 3548, 3012, 3033
 4562, 3011, 3015, 3010, 3818
 4563, 3011, 3267, 3269, 3829
 4564, 3010, 3951, 3818, 3919
 4565, 3014, 3012, 3237, 3033
 4566, 3552, 3024, 3789, 3553
 4567, 3952, 1006, 3211, 1007
 4568, 3231, 3218, 3521, 3217
 4569, 2980, 3045, 3233, 3231
 4570, 3023, 3231, 3217, 3218
 4571, 3500, 3953,  957, 1796
 4572, 2992, 3253, 3324, 3234
 4573, 3190, 3007, 3197, 3191
 4574, 3196, 3216, 3491, 3295
 4575, 3285, 3216, 3491, 3196
 4576, 3001, 3059, 2918, 2950
 4577, 2940, 2938, 3001, 3008
 4578, 3201, 3017, 3214, 3941
 4579, 3215, 3214, 3017, 3218
 4580, 3617, 3637, 3692, 3690
 4581, 3693, 3721, 3695, 3802
 4582, 3693, 3954, 3801, 3798
 4583, 3797, 3802, 3801, 3693
 4584, 3693, 3797, 3802, 3698
 4585, 3690, 3693, 3698, 3955
 4586, 3462, 3458, 3842, 3461
 4587, 3956, 3458, 3842, 3462
 4588, 3455, 3459, 3458, 3461
 4589, 3843, 3957, 3958, 3899
 4590, 3020, 3409, 3025, 3070
 4591, 3021, 3069, 3959, 3411
 4592, 2952, 3021, 3489, 3022
 4593, 2953, 3020, 3025, 2948
 4594, 2951, 3037, 3069, 3071
 4595, 3295, 3216, 3491, 3942
 4596, 3190, 3191, 3195, 3193
 4597, 3293, 3479, 3196, 3193
 4598, 3294, 3293, 3289, 3295
 4599, 3960, 3961, 1934, 3962
 4600, 3960, 3963,  425, 1784
 4601, 3960, 1374, 3961, 3962
 4602, 3960,  336, 1777, 1767
 4603, 3960,  335, 3963, 1784
 4604, 3960,  335, 1777,  336
 4605, 3072, 3073, 3964, 3753
 4606, 3073, 3133, 3134, 3489
 4607, 3834, 3838,  987, 3245
 4608, 2952, 3073, 3134, 3489
 4609, 3343, 3342, 3073, 3753
 4610, 3273, 3028, 3271, 3068
 4611, 3072, 3959, 3021, 3069
 4612, 3072, 3021, 3959, 3964
 4613, 3113, 3748, 3758, 3769
 4614, 3178, 3758, 3448, 3736
 4615, 3758, 3736, 3180, 3756
 4616, 3740, 3179, 3749, 3965
 4617, 3737, 3743, 3291, 3750
 4618, 3178, 3454, 3736, 3448
 4619, 3178, 3189, 3179, 3188
 4620, 3537, 3515, 3513, 3837
 4621, 3688, 3175, 3164, 3712
 4622, 3175, 2057, 3688, 2058
 4623, 3167, 3610, 3165, 3715
 4624, 3688, 2004, 3752, 3704
 4625, 3167, 2058, 3688, 2031
 4626, 3165, 3416, 3610, 3704
 4627, 2003, 3752, 2030, 2004
 4628, 3688, 2004, 3704, 2031
 4629, 2947, 2992, 3231, 2980
 4630, 3146, 3213, 2994, 3253
 4631, 3144, 3149, 3146, 3145
 4632, 3144, 3152, 3787, 1486
 4633, 3144, 3147, 3787, 3152
 4634, 3148, 3366, 3320, 3966
 4635, 3152, 3966, 3150, 3148
 4636, 3148, 2987, 3661, 3320
 4637, 3144, 3149, 3145, 3147
 4638, 3146, 3253, 2994, 2993
 4639, 2993, 3150, 3148, 3149
 4640, 3967, 3483, 1626,  370
 4641,  321, 1537, 3967, 3485
 4642, 3289, 3741, 3479, 3291
 4643, 3967,  321, 1506,  371
 4644, 3483, 1507,  370, 3967
 4645, 3967, 3482, 1537, 1542
 4646, 3967, 3482, 1542, 3105
 4647, 3482, 3477, 3104, 3967
 4648, 3388, 1146, 3863, 3385
 4649, 3384, 3383, 1646, 1597
 4650, 3152, 1511, 1487, 1512
 4651,  242, 3388, 3863, 1597
 4652, 3388, 3383, 3968, 3387
 4653, 1598, 3388, 1597, 3383
 4654, 3388, 1597,  242,  243
 4655, 3388, 3968, 1147, 3387
 4656, 3388, 1598, 1597,  243
 4657, 3393, 3395, 3396, 3969
 4658, 3392, 3116, 3854, 3393
 4659, 3419, 3924, 3166, 3765
 4660, 3938, 1936, 1937, 1372
 4661, 3419, 3924, 3420, 3166
 4662, 3764, 3608, 3970, 3971
 4663, 3764, 3765, 3606, 3971
 4664, 3764, 3972, 3970, 3779
 4665, 2987, 2993, 3149, 2994
 4666, 3148, 3661, 3973, 3320
 4667, 3316, 3315, 3661, 3662
 4668, 3315, 3147, 3364, 3751
 4669, 2924, 3254, 3661, 3044
 4670, 3974, 3117,  232, 1126
 4671, 1564, 3974, 1125, 3351
 4672, 3974, 1538, 3351, 1564
 4673, 3974, 3670, 3117, 1126
 4674, 3974, 3975, 3353, 3351
 4675, 3974, 3117, 1538,  232
 4676, 2906, 2986, 2984, 2989
 4677, 3376, 3269, 1042, 3268
 4678, 3329, 3357, 3817, 3527
 4679, 3139, 3442, 3620, 3375
 4680, 2937, 3528, 2935, 2942
 4681, 2943, 3270, 3011, 3268
 4682, 3011, 3359, 3818, 3829
 4683, 3268, 3976, 3269, 1042
 4684, 3268, 3429, 3525, 3621
 4685, 3011, 3268, 3976, 3269
 4686, 3226, 3977, 3275, 3978
 4687, 3907, 2075, 2101, 2074
 4688, 3101, 3221, 3104, 3979
 4689, 3226, 3221, 1298, 3980
 4690, 3226, 3980, 1298, 3978
 4691, 3226, 3067, 3277, 2968
 4692, 2970, 3275, 3226, 3101
 4693, 3226, 3277, 3067, 3980
 4694, 3509, 3479, 3196, 3502
 4695, 3196, 3192, 3193, 3479
 4696, 3479, 3738, 3502, 3950
 4697, 3289, 3502, 3285, 3196
 4698, 3289, 3502, 3741, 3290
 4699, 3479, 3480, 3193, 3739
 4700, 3479, 3509, 3478, 3480
 4701, 3800, 3645, 1834, 3981
 4702, 3645, 3802, 3982, 3698
 4703, 3645, 3644, 3802, 3698
 4704, 3645, 1834, 3981, 1768
 4705, 3645, 1870, 1834, 1836
 4706, 3645, 3644, 1836, 1774
 4707, 3983, 1517,  359,  360
 4708, 3983, 1623, 3984,  360
 4709, 3983, 1569,  359, 1559
 4710, 3983, 3984, 1623,  385
 4711, 3983, 3985, 3986, 2096
 4712, 3983,  384,  385, 1569
 4713, 3970, 3987, 3766, 3779
 4714, 3970, 3972, 3924, 3988
 4715, 3970, 3989, 3924, 3971
 4716, 3414, 3165, 3415, 3416
 4717, 3245, 3357, 3537, 3839
 4718, 3990, 3991, 3992, 3993
 4719, 3994, 3995, 3801, 3996
 4720, 3996, 3997, 3954, 3994
 4721, 3994, 3766, 3987, 3997
 4722, 3994, 3991, 3992, 3995
 4723, 3606, 3610, 2005, 2032
 4724, 3764, 3612, 3608, 3605
 4725, 3606, 3971, 3765, 2033
 4726,  985, 3839, 3527, 1012
 4727, 2033, 3971, 3608, 3606
 4728, 3606, 2005, 3607, 2006
 4729, 3606, 2033, 3610, 2032
 4730, 3606, 3608, 2006, 3607
 4731, 1834, 3800, 3795, 3982
 4732, 3800, 3998, 3799, 3794
 4733, 3801, 3798, 3996, 3793
 4734, 3960, 3963, 1935,  425
 4735, 3963, 1784,  335,  334
 4736, 3963, 3999, 1373, 4000
 4737, 3963, 1935,  425,  424
 4738, 3963,  334, 3938,  424
 4739, 3368, 3887, 3367, 4001
 4740, 3104, 3477, 3103, 3369
 4741, 3100, 3103, 3369, 3104
 4742, 3369, 3105, 4002, 4001
 4743, 3102, 3368, 3369, 3094
 4744, 2944, 3011, 3015, 3010
 4745, 2945, 3011, 3818, 3015
 4746, 3674, 1388, 3840, 3706
 4747, 3674, 3840, 1387, 3567
 4748, 3363, 3547, 3123, 3674
 4749, 3242, 3300, 3305, 3244
 4750, 3207, 3305, 3300, 3244
 4751, 3357, 3817, 3527, 3839
 4752, 3299, 3154, 3646, 4003
 4753, 3299, 3300, 3298, 3209
 4754, 3360, 3298, 3297, 3300
 4755, 3162, 4004, 4005, 3156
 4756, 4004, 4005, 4006, 3596
 4757, 4004, 3822, 4006, 3301
 4758, 4004, 4007, 4005, 4008
 4759, 4004, 4008, 4005, 3596
 4760, 4005, 3831, 3162, 3156
 4761, 3137, 3135, 4009, 3132
 4762, 3341, 3134, 2908, 3038
 4763,  184,  960, 1779, 1783
 4764, 3349, 3022, 3489, 3575
 4765, 3130, 3134, 3137, 3135
 4766, 3852, 4010, 4011, 4012
 4767, 3852,  303, 4012, 1616
 4768, 3466, 3852, 1332, 3468
 4769, 3852,  303, 1613,  304
 4770,  304, 3852, 3466, 1613
 4771, 3009, 3033, 3709, 3548
 4772, 3014, 3809, 3240, 3034
 4773, 2932, 4013, 3080, 3168
 4774, 2932, 3016, 3709, 2937
 4775, 3709, 3548, 3033, 3034
 4776, 3527, 1012, 3839, 1013
 4777, 3153, 3155, 3154, 3157
 4778, 3932, 3161, 3530, 4004
 4779, 1116, 3865, 3155, 3862
 4780, 3862, 3529, 3155, 1116
 4781, 3161, 3155, 3534, 3156
 4782, 3155, 3157, 3386, 3172
 4783, 3158, 3155, 3386, 3385
 4784, 2074, 1514, 2100, 2101
 4785, 3616,  689, 3640,  696
 4786, 3629, 3616, 3615, 3640
 4787, 3276, 3274, 3422, 2963
 4788, 2935, 3077, 3528, 2937
 4789, 3427, 2935, 3077, 3528
 4790, 3177, 3277, 2968, 3422
 4791, 2975, 3013, 2976, 3341
 4792, 3358, 1044, 3267, 3027
 4793, 3668, 3276, 3669, 3421
 4794, 3530, 3156, 4004, 3161
 4795, 3162, 3161, 4004, 3156
 4796, 3384, 3155, 3543, 3161
 4797, 3154, 3155, 4003, 3296
 4798, 3153, 3155, 3158, 3161
 4799, 3161, 3158, 3384, 3155
 4800, 3040, 3632, 3639, 3039
 4801, 3417, 3611, 3632, 3615
 4802, 3699, 3613,  690, 3616
 4803, 3704, 3947, 3040, 3416
 4804, 3629, 3615, 3632, 3631
 4805, 3611, 3631, 3632, 3615
 4806, 3613, 3039,  698,  697
 4807, 3471, 3626, 3209, 3952
 4808, 3471, 3475, 3474, 3831
 4809, 3471, 4014, 3831, 4015
 4810, 3471, 3831, 4014, 3646
 4811, 3615, 3640, 3616,  689
 4812, 3764, 3766, 3609, 3779
 4813, 3764, 3970, 3766, 3779
 4814, 3970, 3993, 3988, 4016
 4815, 3764, 3924, 3970, 3972
 4816, 3924, 3989, 3988, 4017
 4817, 3764, 3971, 3924, 3765
 4818, 3863, 3866,  241, 1643
 4819, 3863, 3864, 1640, 3384
 4820, 3863, 1597, 1643,  242
 4821, 3862, 4018, 3863, 3866
 4822, 3699, 3614,  690,  683
 4823, 1145, 3385, 1151, 4018
 4824, 3060, 3063, 3341, 3061
 4825, 3168, 3709, 2932, 4013
 4826, 3009, 3012, 3528, 3267
 4827, 2932, 2937, 3076, 3118
 4828, 2932, 3168, 3080, 3663
 4829, 4019, 4013, 3080, 2932
 4830, 3009, 3076, 3709, 2937
 4831, 4020, 4021, 3811, 1384
 4832, 3016, 4019, 3013, 3063
 4833, 3868, 1825, 3380, 3379
 4834, 3378, 3380, 1825, 3379
 4835, 3382, 3378, 3379,  971
 4836, 3380,  195, 1763,  196
 4837, 3870, 3871, 3873, 3868
 4838, 3380, 1756,  196, 1763
 4839, 2100,  362, 1515,  387
 4840, 3081, 3441, 3429, 3539
 4841, 3401, 3905, 3539, 3443
 4842, 2923, 2924, 2917, 2988
 4843, 4022, 3768, 1479, 4023
 4844, 3402, 3440, 3200, 3195
 4845, 3143, 3082, 3142, 3856
 4846, 3046, 2982, 3043, 3044
 4847, 3402, 3322, 3401, 3323
 4848, 3402, 3331, 3403, 3400
 4849, 3140, 3332, 3143, 3142
 4850,  990, 3033, 3809, 3237
 4851, 3809, 3033, 3014, 3237
 4852, 3014, 4013, 3709, 3034
 4853, 3611, 3947, 3632, 3630
 4854, 3238, 3012,  990, 3237
 4855, 4024, 3238,  963, 3237
 4856, 2996, 1776,  193, 1875
 4857, 2996, 3381,  969, 1776
 4858, 2996, 1776, 1875,  270
 4859, 2996, 4025,  271,  192
 4860, 2996, 4026, 4027, 1192
 4861, 2996, 1875,  271,  270
 4862, 3199, 3190, 3201, 3197
 4863, 2943, 3270, 3058, 2945
 4864, 3358, 2961, 3589, 3528
 4865, 2911, 3088, 2900, 2902
 4866, 3055, 3814, 3128, 3257
 4867, 3498, 3260, 3741, 3880
 4868, 3499, 3506, 4028, 4029
 4869, 3499, 4030, 3896, 3880
 4870, 3499, 3877, 4031, 4032
 4871, 3499, 3877, 4032, 3500
 4872, 3499, 4028, 4030, 4029
 4873, 4033, 3844, 1831, 3958
 4874, 4033, 3844, 1819, 1831
 4875, 4033, 3843, 3958, 3899
 4876, 3614, 3616,  690,  689
 4877, 3175, 2958, 3019, 3664
 4878, 1188, 1822, 1819, 4033
 4879, 4033, 3872, 1187, 1188
 4880,  265, 1187, 1819, 3958
 4881, 3444, 3577, 3736, 3445
 4882, 3453, 3452, 4034, 4035
 4883, 3577, 3760, 3453, 3579
 4884, 3040, 2003, 3949, 1976
 4885, 3762, 3453, 3444, 3578
 4886, 3453, 3452, 4035, 3762
 4887, 3444, 3452, 3453, 3762
 4888, 3549, 1806, 1807,  165
 4889, 3549, 2999, 1806, 3641
 4890, 3549, 1807,  166,  165
 4891, 1873, 2999, 1807, 3550
 4892, 2999, 1807, 3550, 3549
 4893, 3549,  166, 1807,  167
 4894, 3549,  167, 1807,  935
 4895, 3550, 1807,  935, 3549
 4896,  936, 3550, 1807,  935
 4897, 3503, 3510, 3508, 3514
 4898, 3285, 3282, 3491, 3492
 4899, 3538, 3506, 3285, 3492
 4900, 3506, 3285, 4036, 3501
 4901, 3512, 3505, 3509, 3502
 4902, 3285, 4036, 3501, 3282
 4903, 3285, 3282, 3492, 4036
 4904, 3190, 3007, 3196, 3295
 4905, 3285, 3491, 3282, 3283
 4906, 3478, 3509, 3479, 3192
 4907, 3893, 3182, 3642, 3897
 4908, 3893, 3182, 3184, 3185
 4909, 3184, 3893, 3897, 3182
 4910, 3895, 3893, 3182, 3894
 4911, 3261, 3183, 3262, 3897
 4912, 3954, 3801, 3798, 3996
 4913, 3947, 3630, 1979, 1978
 4914, 3766, 4037, 3944, 3945
 4915, 4037, 3954, 3766, 3994
 4916, 3612, 3954, 3922, 3694
 4917, 3766, 3954, 3945, 3612
 4918, 3945, 3612, 3608, 3766
 4919, 3128, 3883, 2973, 3882
 4920, 2967, 2962, 2955, 2969
 4921, 3128, 3814, 3874, 3257
 4922, 3084, 3356, 3265, 3263
 4923, 3128, 3266, 3883, 3265
 4924, 3947, 3630, 1978, 1977
 4925, 1490, 2099, 1515, 1491
 4926, 2934, 3078, 2977, 2936
 4927, 3067, 2936, 3068, 3224
 4928, 3427, 1271, 3587, 3589
 4929, 3515, 3707, 3513, 3714
 4930, 3367, 3100, 3107, 3532
 4931, 2984, 2969, 3252, 2972
 4932, 3573, 3472, 3250, 3186
 4933, 3299, 3475, 3154, 3472
 4934, 3573, 3186, 3572, 3472
 4935, 4038, 3159, 3160, 3650
 4936, 3158, 3159, 3387, 3157
 4937, 1515, 2099, 2100,  387
 4938, 4039, 2099, 2098, 1515
 4939, 4029, 4030, 1798, 1843
 4940, 2098, 2072, 1491, 2099
 4941, 3159, 3157, 3647, 3387
 4942, 3299, 3471, 4003, 3646
 4943, 3471, 4040, 4003, 3646
 4944, 3208, 3202, 3206, 3207
 4945, 3202, 3211, 3209, 3208
 4946, 3209, 3373, 3346, 3208
 4947, 3372, 3626, 3471, 4015
 4948, 3299, 3472, 3473, 3474
 4949, 3298, 3471, 4003, 3299
 4950, 3242, 3296, 3299, 3298
 4951, 3207, 3473, 3209, 3305
 4952, 3472, 3474, 3249, 3473
 4953, 3572, 3186, 3251, 3936
 4954, 3472, 3187, 3475, 3250
 4955, 3472, 3473, 3247, 3230
 4956, 3472, 3303, 3473, 3230
 4957, 3472, 3936, 3230, 3186
 4958, 3474, 3347, 3249, 3346
 4959, 4041, 3474, 3347, 3249
 4960, 3346, 3473, 3248, 3249
 4961, 3533, 4042, 3542, 3434
 4962, 3042, 3542, 3046, 3043
 4963, 3428, 3434, 3533, 3542
 4964, 3542, 3946, 3428, 3434
 4965, 2980, 3045, 3320, 2993
 4966, 1375, 3961, 3050, 3049
 4967, 3818, 3357, 3245, 2945
 4968,  338, 3049, 1820, 1824
 4969, 3049,  337, 1824,  338
 4970, 3803, 1376, 3049, 1820
 4971, 3049, 1762, 3961, 3805
 4972, 3049, 3805, 3050, 3804
 4973, 3758, 3445, 3757, 3446
 4974, 1734,  406,  405, 3446
 4975, 3716, 3518, 1901, 1904
 4976, 3757, 3447, 3761, 1734
 4977, 3445, 3757, 3446, 3447
 4978, 3769, 3446, 3757,  405
 4979, 3086, 3091, 3088, 3087
 4980, 4043, 3788, 3789, 3792
 4981, 3674, 3547, 3123, 3840
 4982, 3781,  250,  251, 1204
 4983, 3117,  232, 1126, 1127
 4984, 3674, 3567, 3555, 3547
 4985, 3565, 3601, 3602, 3603
 4986, 3038, 3079, 3343, 3074
 4987, 3028, 3546, 3272, 3271
 4988, 3119, 3123, 3363, 3547
 4989, 4031, 3643, 1852, 4032
 4990, 3877,  983, 3500, 3876
 4991, 3499, 1881, 4030, 4028
 4992, 3878, 3499, 3260, 3498
 4993, 4031, 3877, 3499, 3000
 4994, 3499, 3000, 3896, 4031
 4995, 3876, 3877, 3498, 3500
 4996, 3344, 3022, 2953, 3024
 4997, 3409, 4044, 3410, 4045
 4998, 3409, 3070, 3412, 3328
 4999, 3409, 4046, 4044, 3585
 5000, 3409, 4045, 3410, 3411
 5001, 3409, 4045, 3344, 3585
 5002, 3020, 3021, 3411, 3069
 5003, 3020, 3412, 3070, 3069
 5004, 3848, 3903, 1171, 1176
 5005, 3202, 3848, 3203, 3205
 5006, 3207, 3488, 3206, 3208
 5007, 3300, 3205, 3244, 3848
 5008, 3203, 3204, 3205, 3847
 5009, 3847, 3848, 3903, 3205
 5010, 3207, 3488, 3305, 3903
 5011, 3146, 3149, 2994, 3212
 5012, 3635, 1840, 1789, 1876
 5013, 3146, 3149, 3212, 3145
 5014, 2994, 3253, 2992, 2993
 5015, 2929, 2918, 2981, 2949
 5016, 3430, 3930, 3929, 3490
 5017, 3190, 3195, 3200, 3194
 5018, 3197, 3195, 3191, 3323
 5019, 3190, 3293, 3295, 3196
 5020, 3400, 3322, 3331, 3332
 5021, 3503, 3505, 3513, 3511
 5022, 3194, 3193, 3392, 3743
 5023, 3389, 3928, 3390, 3392
 5024, 3195, 3191, 3439, 3193
 5025, 3781, 1169, 3782, 1174
 5026, 3190, 3294, 3194, 3198
 5027, 3909, 1181, 1205, 1204
 5028, 3163, 3723, 3426, 3425
 5029, 3715, 3166, 3167, 2958
 5030, 2058, 3715, 3610, 3167
 5031, 3420, 3426, 3768, 3413
 5032, 3419, 3166, 3165, 3715
 5033, 2999, 1873, 1890, 3622
 5034, 3707, 1891, 3716, 1901
 5035, 3622, 1890, 3643,  937
 5036, 3622, 3550, 1873,  936
 5037, 3550, 3622, 3598,  940
 5038, 3889,  937, 3622, 3643
 5039, 3889, 2998, 3622,  940
 5040, 2997, 3550, 2999, 3598
 5041, 3889, 3878, 3000, 2998
 5042, 1516, 2098, 1491, 1515
 5043, 3889,  940, 3622,  937
 5044, 4047, 3542, 3434, 3946
 5045, 3826, 3542, 3434, 4047
 5046, 3533, 3493, 3403, 3434
 5047, 3542, 1657, 3826, 3434
 5048, 3542, 3046, 3827, 3875
 5049, 3533, 3046, 3542, 3875
 5050, 3542, 1657, 3434, 4042
 5051, 3555, 3547, 3570, 3546
 5052, 3100, 4001, 3367, 3107
 5053, 3884, 1685, 1544, 1541
 5054, 3561, 3570, 3567, 3571
 5055, 3184, 3681, 4048, 3915
 5056, 3179, 3183, 3749, 3965
 5057, 3182, 3642, 2998, 3598
 5058, 4049, 3182, 3894, 3729
 5059, 3184, 3448, 3681, 3892
 5060, 3183, 3879, 3749, 3965
 5061, 3444, 3736, 3448, 3446
 5062, 3184, 3897, 4048, 3188
 5063, 3184, 3892, 3681, 3915
 5064, 3013, 3015, 3281, 3919
 5065, 3919, 3013, 3010, 3239
 5066, 1684, 4002, 1547, 3105
 5067, 3009, 3011, 3012, 3267
 5068, 3013, 3281, 3341, 3063
 5069, 3014, 4019, 3709, 4013
 5070, 2944, 2975, 2934, 2937
 5071, 2930, 2934, 2936, 3078
 5072, 3191, 3323, 3438, 3526
 5073, 3191, 3323, 3439, 3438
 5074, 3001, 3216, 3007, 3201
 5075, 3289, 3293, 3292, 3291
 5076, 3295, 3201, 3216, 3942
 5077, 3293, 3194, 3928, 3743
 5078, 3192, 3329, 3191, 3527
 5079, 3191, 3527, 3329, 3526
 5080, 3043, 3581, 4047, 3826
 5081, 3581, 3044, 4050, 3043
 5082, 3542, 3046, 3043, 3827
 5083, 3043, 4047, 3850, 3861
 5084, 3428, 3946, 3043, 3520
 5085, 4047, 3946, 3861, 3043
 5086, 4051, 4047, 3946, 3861
 5087, 3358, 3528, 3027, 3267
 5088, 2961, 3358, 3355, 3354
 5089, 3668, 3276, 3355, 3523
 5090, 3028, 3547, 3555, 3546
 5091, 3271, 2936, 3224, 3068
 5092, 3363, 3121, 3028, 3273
 5093, 3271, 3068, 3224, 3602
 5094, 3272, 3273, 3271, 3229
 5095, 3273, 3271, 3229, 3068
 5096, 3547, 4052, 3840, 3567
 5097, 3123, 3727, 3840, 3547
 5098, 2903, 3271, 3068, 2936
 5099, 3028, 3547, 3119, 3363
 5100, 3123, 3727, 3125, 3840
 5101, 3674, 3566, 3555, 3567
 5102, 3121, 3522, 3088, 3273
 5103, 3123, 3674, 3706, 3363
 5104, 3368, 3319, 3886, 3860
 5105, 3095, 3483, 3887, 3369
 5106, 4002, 3369, 4001, 3887
 5107, 3369, 3094, 3096, 3095
 5108, 3100, 3252, 3532, 3367
 5109, 3252, 3368, 3319, 3532
 5110, 3788, 3789, 3792, 3552
 5111, 2920, 2975, 2941, 2944
 5112, 1778, 1860, 4053, 3789
 5113, 3789, 1778, 4043, 1943
 5114, 3789, 3024, 1970, 3553
 5115, 3789, 3024, 1943, 1970
 5116, 3778, 3925, 4054, 4055
 5117, 3778, 3925, 3923, 3313
 5118, 3778, 3314, 3925, 3313
 5119, 3778, 4054, 3925, 3314
 5120, 3778, 3988, 3784, 3783
 5121, 4056, 4057, 1446, 4058
 5122, 3905, 3443, 1095, 3539
 5123, 3539, 1069, 3620, 1096
 5124, 1446, 4059, 4056, 4058
 5125, 4058, 1470, 4060, 3775
 5126, 4058, 4060, 1470, 4059
 5127, 1446, 4057, 3775, 4058
 5128, 3429, 3539, 3621, 3620
 5129, 3148, 3366, 2993, 3320
 5130, 3144, 3152, 3148, 3147
 5131, 3148, 3364, 3315, 3147
 5132, 3366, 3849, 2993, 3320
 5133, 3366, 2077, 3966, 2076
 5134, 3539, 1068, 3436, 3441
 5135, 3150, 3966, 2076, 3366
 5136, 3282, 1974, 3284, 2001
 5137, 3492, 3282, 3491, 1973
 5138, 4061,  927,  934,  926
 5139, 3282, 3284, 1974, 3501
 5140, 3283, 3284, 3285, 3289
 5141, 3282, 2001, 3284, 3283
 5142, 1730,  156,  157,  932
 5143, 3282, 3283, 3491, 2000
 5144, 1770, 4044, 1941, 4062
 5145, 4044, 4062, 1770, 1743
 5146, 4044, 4046, 4063, 1940
 5147, 4044, 4045, 3585, 4062
 5148, 3076, 3118, 3077, 1248
 5149, 3826, 2105, 2106, 1572
 5150, 4044, 4063, 1743,  420
 5151, 2061, 2088, 3989, 3765
 5152, 2975, 3060, 3341, 3079
 5153, 3029, 3271, 3554, 3546
 5154, 3238,  989,  963,  990
 5155, 3667, 1073, 1099, 1072
 5156, 4064, 1128, 1129,  230
 5157, 3067, 2936, 3224, 3176
 5158, 3271, 3224, 2936, 4065
 5159, 2899, 3067, 3277, 3176
 5160, 3029, 2936, 2903, 3078
 5161, 2936, 4065, 3624, 3246
 5162, 2911, 3088, 2902, 2989
 5163, 3409, 3586, 4046, 3585
 5164, 3409, 3586, 3328, 4046
 5165, 3606, 2006, 2032, 2005
 5166, 4066,  707,   92,   91
 5167, 3070, 3412, 3328, 1391
 5168, 3070, 3071, 3069, 3097
 5169, 3497, 4028, 3506, 3504
 5170, 3509, 3192, 3891, 3512
 5171, 3506, 4036, 3492, 3890
 5172, 3538, 3432, 3717, 3492
 5173, 3763, 3762,  927, 4061
 5174, 3285, 3282, 3501, 3284
 5175, 3506, 3708, 3890, 3492
 5176, 1826,  259, 1181, 1180
 5177, 4014, 3535, 1087, 3536
 5178, 3131, 3432, 4067, 3716
 5179, 3001, 3005, 3002, 3008
 5180, 3130, 3002, 3134, 3349
 5181, 3349, 3517, 3131, 3576
 5182, 3941, 2025, 1998, 1999
 5183, 3519, 3131, 3518, 3716
 5184, 3306, 3432, 3003, 3131
 5185, 3421, 3669, 4068, 3407
 5186, 4000, 1935, 1961, 1934
 5187, 1751, 1364,  325,  326
 5188, 3003, 3131, 3432, 3348
 5189, 3285, 3432, 3492, 3430
 5190, 3216, 3430, 3285, 3491
 5191, 3215, 3430, 3003, 3216
 5192, 3432, 3929, 4067, 4069
 5193, 3431, 3348, 3432, 4067
 5194, 3307, 3519, 3129, 3513
 5195, 4067, 3131, 3348, 3432
 5196, 3512, 3192, 3196, 3509
 5197, 3519, 3538, 3717, 3707
 5198, 3307, 3516, 3512, 3513
 5199, 1801, 1385, 4070, 4020
 5200, 3450,  932,  925,  933
 5201, 4040, 1061, 3536, 1060
 5202, 4020, 3726, 4070, 1801
 5203, 4020, 3726, 1874, 1821
 5204, 4020, 3726, 1801, 1874
 5205, 4020, 3811, 3726, 3812
 5206, 3269, 1044, 1043, 1017
 5207, 4020, 4021, 3726, 3811
 5208, 3800, 4071, 3998, 4072
 5209, 3799, 4073, 4074, 3998
 5210, 4025,  192,  967,  191
 5211, 3799, 4074, 3808, 3796
 5212, 3800, 3799, 3981, 3795
 5213, 3371, 3898, 1208, 3902
 5214, 3794, 4074, 3998, 3799
 5215,  219,  220, 1561, 1139
 5216, 4075, 1002, 1028, 1001
 5217, 3793, 3799, 3800, 3795
 5218, 3226, 2968, 3277, 3978
 5219, 1560,  301,  302, 1335
 5220, 3271, 3068, 3602, 3229
 5221, 3293, 3194, 3294, 3927
 5222, 3293, 3292, 3291, 3928
 5223, 3439, 3195, 3193, 3440
 5224, 4076, 4077, 4078, 4079
 5225, 3112, 3391, 3628, 3397
 5226, 4080,  998, 1024,  997
 5227, 1589, 1118,   16,  176
 5228, 4081, 4026, 1216, 4027
 5229, 3293, 3927, 3292, 3928
 5230, 3195, 3191, 3323, 3439
 5231, 3479, 3193, 3291, 3739
 5232, 3322, 3195, 3402, 3200
 5233, 4025,  272, 1193,  271
 5234, 3549, 2997, 3641,  907
 5235, 2997, 3641,  907,  914
 5236, 3574, 2997, 3642, 3598
 5237, 3549, 2999, 2997, 3550
 5238, 3259, 3643, 3000, 1885
 5239, 2997, 3574, 3551, 3550
 5240, 4025,  272,  271,  192
 5241, 3002, 3005, 3131, 3129
 5242, 3130, 3131, 3349, 3517
 5243, 3548, 3077, 1246, 1247
 5244, 1194,  994,  968,  995
 5245, 3187, 1278, 1254, 1255
 5246, 2953, 3023, 2948, 3025
 5247, 3781,  251, 1169, 1174
 5248, 3553, 3217, 3215, 3023
 5249, 3020, 3070, 3071, 3069
 5250, 3833, 4082, 3394, 1256
 5251, 3003, 3348, 3349, 3131
 5252,  244, 1599,  245, 1149
 5253, 4003, 3646, 4040, 3536
 5254, 2912, 3071, 3232, 2990
 5255, 2948, 3070, 3232, 3071
 5256, 3460, 1005, 1031, 1004
 5257, 3743, 3627, 3928, 3750
 5258, 4006, 1086, 3535, 1113
 5259, 3389, 3108, 3627, 3112
 5260, 3299, 3209, 3474, 3473
 5261, 3737, 3739, 3743, 3742
 5262, 3193, 3743, 3291, 3739
 5263, 3374, 3456, 3371, 3373
 5264, 4083, 3336, 4079, 1262
 5265, 3928, 3392, 3627, 3743
 5266, 1169, 1228, 1164,  250
 5267, 3845, 1841, 1867, 1847
 5268, 3627, 3112, 3392, 3389
 5269, 3113, 3742, 3770, 3943
 5270, 1205, 1204, 1228, 3782
 5271, 4014, 3535, 1086, 1087
 5272, 3193, 3392, 3743, 3853
 5273, 3993, 3990, 3786, 4084
 5274, 3993, 3992, 3990, 4084
 5275, 3459, 1004, 1030, 1003
 5276, 3994, 4016, 3944, 3992
 5277, 3991, 3992, 3993, 3994
 5278, 1267, 1244, 1243, 1047
 5279, 3988, 3987, 3939, 3785
 5280, 1825,  268, 1190, 1189
 5281, 3865, 1150, 4085, 1155
 5282, 3993, 3994, 3970, 3987
 5283, 1811, 1184, 1183,  262
 5284, 3993, 3785, 3990, 3991
 5285, 4086, 1276,  247,  248
 5286, 3253, 2992, 2993, 3234
 5287, 3384, 1646, 1638, 1640
 5288, 3952, 1007, 1033, 1006
 5289, 2993, 3233, 3849, 3366
 5290, 3860, 3093, 3092, 3317
 5291, 2987, 3044, 3661, 3320
 5292,  273,  966,  190,  272
 5293, 3144, 1462, 3146, 1463
 5294, 3974, 1126,  233, 1125
 5295, 3536, 1088, 1062, 1089
 5296, 3781, 1169,  251,  250
 5297, 3213, 2992, 3324, 3232
 5298, 3907, 3152, 3966, 3150
 5299, 3045, 3320, 2993, 3849
 5300, 3623, 1857, 1864, 1899
 5301, 2982, 3320, 3045, 3044
 5302, 3324, 2926, 1994, 2021
 5303, 1755,  315,  314,   23
 5304, 2949, 3045, 2980, 3231
 5305, 1767,  336,  337, 1375
 5306, 4087, 4057, 3855, 1989
 5307, 2929, 2924, 2982, 2995
 5308, 3222, 1299, 3223, 3221
 5309, 3272, 3546, 3562, 3554
 5310, 3650, 1301, 4088, 3934
 5311, 4067, 1855, 1782, 1858
 5312, 3570, 4052, 1753, 1856
 5313, 3650, 3934, 1302, 1301
 5314, 4089, 3476,  287, 1358
 5315, 4088, 3650, 3159, 4038
 5316, 1325, 3650, 1301, 4088
 5317, 1554, 2092,  380,  379
 5318, 3932, 3159, 3649, 3160
 5319, 3222, 1298, 3221, 3980
 5320, 3650, 3160, 1608, 3649
 5321, 3650, 3648, 1302, 3934
 5322, 3650, 3649, 1608, 1326
 5323, 3163, 3425, 3424, 3723
 5324, 3852, 4011, 1549, 1616
 5325, 1346, 1546, 1548, 4090
 5326, 3852, 4012, 4011, 1616
 5327, 4011, 1616, 4012, 1556
 5328, 3815, 3548, 3033, 3828
 5329, 4011, 1549,  224,  223
 5330, 1133, 1556, 1134, 4091
 5331, 3980, 1297, 3978, 3277
 5332, 4011,  224, 1556, 1134
 5333,  223, 1551, 1135, 4011
 5334, 3988, 3784, 3783, 3785
 5335, 3988, 3972, 4017, 3784
 5336, 3989, 4017, 4092, 3988
 5337, 3556, 1618, 3557,  349
 5338, 3909, 1180, 1204, 1174
 5339, 3925, 4054, 4055, 2090
 5340, 3778, 3313, 3923, 3783
 5341, 3144, 1487, 1486, 1462
 5342, 3145, 3212, 1461, 3093
 5343, 3925, 4054, 2090, 1558
 5344, 3654,   99,   98,  702
 5345, 4054, 3921, 3314, 3778
 5346, 3925, 4054, 1558, 1630
 5347, 1630, 3921, 3314, 4054
 5348, 3045, 3851, 3231, 3333
 5349, 3223, 1299,  285,  286
 5350, 3320, 3044, 4050, 3580
 5351, 3966, 3973, 3580, 3320
 5352, 3226, 3980, 3978, 3277
 5353, 3045, 3044, 3580, 3581
 5354, 2995, 3056, 3057, 2927
 5355, 3042, 3043, 2982, 3041
 5356, 2949, 3218, 3059, 3017
 5357, 4042, 3827, 1657, 1692
 5358, 2987, 2986, 2994, 3317
 5359, 3366, 3150, 2993, 3253
 5360, 3148, 2987, 3315, 3661
 5361, 3234, 3236, 2022, 3324
 5362, 3457,  977, 1769, 1775
 5363, 3234, 2992, 3236, 3324
 5364, 2992, 2994, 3232, 3213
 5365, 3355, 3665, 3358, 3589
 5366, 4012, 4093, 1334, 1333
 5367, 3572, 3159, 3647, 3934
 5368, 2977, 3067, 3176, 2936
 5369, 2951, 3072, 3021, 3069
 5370, 3828, 3528, 1246, 3548
 5371, 3012, 3828, 3528, 3267
 5372, 2920, 2943, 2944, 2942
 5373, 3528, 2937, 3076, 3009
 5374, 3434, 1654, 3435, 1690
 5375, 3377, 3909, 1205, 4094
 5376, 3248, 1230, 1206, 1207
 5377, 3528, 3548, 3077, 1246
 5378, 3090, 3940, 3227, 3229
 5379, 2904, 3030, 2910, 2912
 5380, 3225, 3221, 3101, 3226
 5381, 3103, 3225, 3221, 3101
 5382, 3369, 3105, 3104, 3483
 5383, 3100, 3105, 3369, 4001
 5384, 3369, 3103, 3094, 3095
 5385, 3103, 3094, 3095, 3089
 5386, 3103, 3228, 3104, 3221
 5387, 3743, 3853, 3392, 3742
 5388, 3749, 3741, 3740, 3965
 5389, 3681, 3732, 3450,  925
 5390, 3737, 3741, 3290, 3291
 5391, 3289, 3502, 3290, 3284
 5392, 3497, 3508, 3500, 3504
 5393, 3194, 3928, 3743, 3392
 5394, 3291, 3737, 3750, 3290
 5395, 3809, 1197,  992,  965
 5396, 3479, 3291, 3741, 3739
 5397, 3560, 1713, 3557, 1618
 5398, 3560,   66, 1591, 1618
 5399, 3533, 3906, 3875, 4042
 5400, 3984, 3986, 4095, 2097
 5401, 3983, 3984,  385, 2097
 5402, 1196,  966,  992,  965
 5403, 3984,  360,  361, 1516
 5404,  966, 1194,  272,  273
 5405, 3984, 4039,  361,  386
 5406, 3984, 1623,  385,  386
 5407, 3825, 1320, 1321, 1344
 5408, 4060, 4096, 2041, 2068
 5409, 4060, 2069, 4097, 4096
 5410, 4058, 4060, 4059, 2041
 5411, 4098, 1912, 1917, 1915
 5412,  167,  143,  900,   11
 5413, 2963, 3177, 3423, 3587
 5414, 3861, 2053, 3496, 2080
 5415, 4099,  411,   26, 1716
 5416, 1469, 1470, 3775, 4097
 5417, 4097, 4096, 1470, 4060
 5418, 1494, 4097, 4096, 1470
 5419, 4100, 4074, 4073, 3998
 5420, 4058, 4056, 1987, 2014
 5421, 4058, 3775, 1446, 1470
 5422, 1470, 4096, 4059, 4060
 5423, 4042, 3906, 1709, 3435
 5424, 3228, 4089, 1356, 3476
 5425, 3487, 3476, 3228, 1357
 5426, 3227, 3103, 3221, 3228
 5427, 4101, 1575, 3905, 3405
 5428, 3228, 3229, 3689, 3223
 5429, 3220, 3229, 3223, 3222
 5430, 4089, 3228, 3223, 3221
 5431,  100, 4070, 4102, 1800
 5432, 4029, 3708, 3504, 1848
 5433, 3574,  909,  901,  902
 5434, 1805,  914,  921,  164
 5435, 4070, 1800,  100,  101
 5436, 3524, 1098, 3666, 3353
 5437, 1801, 1385,  681, 4070
 5438, 4070, 3726, 4102, 1800
 5439, 3580, 3581, 2078, 3850
 5440, 1933, 1762, 3805, 3961
 5441, 1800, 3726, 1801, 4070
 5442, 3856, 3405, 4103, 1656
 5443, 4070, 1801, 1800,  101
 5444, 4104, 3797, 3693, 3955
 5445, 3034, 1199, 1223, 1222
 5446, 3502, 3738, 3876, 3950
 5447, 4104, 1430, 3696, 4105
 5448, 3955, 4104, 3797, 1406
 5449, 4104, 3798, 1429, 4105
 5450,   26, 4030, 1948,  411
 5451, 3256, 2924, 3661, 3316
 5452, 3148, 3661, 3315, 3364
 5453, 3140, 3056, 3057, 3330
 5454, 3147, 3152, 3365, 3867
 5455, 3148, 3973, 3365, 3966
 5456, 3144, 3149, 3148, 3150
 5457, 3148, 3661, 3364, 3973
 5458, 1383,  345,  344, 1816
 5459, 3637, 3631, 3701, 3615
 5460, 3941, 3495, 3521, 2025
 5461, 3954, 3612, 3766, 4105
 5462, 2020, 2046, 1466, 2019
 5463, 3629, 3948, 3638, 3635
 5464, 1394, 1965, 1992, 1419
 5465, 3633, 3635, 3720, 3634
 5466, 3215, 3218, 2954, 3023
 5467, 1721,  930,  159,  929
 5468, 3017, 3333, 3521, 3495
 5469, 3021, 3489, 3344, 3964
 5470, 3146, 3253, 2925, 3213
 5471, 3745, 1092, 1119, 1118
 5472, 3349, 3489, 3134, 3133
 5473, 3747, 3745, 1119, 3969
 5474, 2949, 3521, 3017, 3333
 5475, 4095, 1516, 2098, 2071
 5476, 3199, 3017, 3495, 3333
 5477, 3918,  923,  915,  916
 5478, 3895,  917,  909,  910
 5479, 3400, 3910, 3404, 3405
 5480, 3401, 3539, 3436, 3441
 5481, 1536, 3482, 1360, 4106
 5482, 3481, 3476, 1359, 1358
 5483, 1358, 4107, 1360, 3481
 5484, 1359, 3481, 3484, 3476
 5485, 3178, 3184, 3183, 3182
 5486,  167,  900,  166,   11
 5487, 3483, 3967, 3105, 3104
 5488, 3481, 3485, 1359, 3484
 5489, 3481, 3104, 3476, 4107
 5490, 3356, 3266, 3408, 3276
 5491, 3714, 1892, 1901, 1894
 5492, 3356, 3266, 3265, 3408
 5493, 1806,  907,  914,  165
 5494, 2962, 2963, 3274, 3276
 5495, 3226, 3978, 3275, 2968
 5496, 3275, 3825, 4108, 4109
 5497, 3275, 3106, 4108, 3977
 5498, 3275, 2968, 3978, 3825
 5499,  935,  900,  143,  901
 5500, 3017, 3214, 3521, 3218
 5501,  903,  146,  145,  941
 5502, 2992, 2948, 3231, 3236
 5503, 4110, 3653, 4082, 3338
 5504,  941,  903,  902,  145
 5505, 3551,  900,  901,  908
 5506,  935,  901,  143,  144
 5507, 3535, 3156, 4014, 4005
 5508, 4111,  921,  922,  929
 5509,  938,  901,  144,  902
 5510, 4005, 4112, 3162, 3831
 5511, 4005, 3596, 4008, 3338
 5512, 3831, 4014, 3156, 4005
 5513, 3652, 3596, 4113, 3653
 5514, 3596, 4113, 3653, 4005
 5515, 2931, 3660, 3554, 3246
 5516, 3120, 3623, 3074, 3677
 5517, 3546, 3569, 3562, 3554
 5518, 3619,  915,  907,  908
 5519, 3554, 3569, 3562, 3660
 5520, 3659, 3546, 3569, 3623
 5521,  944,  904,  903,  146
 5522, 3374, 3833, 3371, 3370
 5523, 3592, 3833, 3374, 3458
 5524, 3535, 3530, 3156, 4004
 5525, 3374, 3833, 3394, 3371
 5526, 4082, 3592, 4110, 3833
 5527, 3592, 3653, 4110, 3326
 5528, 3590, 3592, 3653, 3288
 5529, 3548, 1223, 3076, 1247
 5530, 3528, 3027, 3832, 3589
 5531, 3009, 3709, 3076, 3548
 5532, 3258, 3259, 1886, 4099
 5533, 3548, 1247, 3076, 3077
 5534, 3014, 3034, 3240, 4013
 5535, 4004, 4007, 4114, 4005
 5536, 3894,  909,  902,  910
 5537, 3573, 3162, 3250, 3475
 5538, 4088, 3159, 3647, 4115
 5539,  947,  905,  904,  147
 5540, 3573, 3250, 3162, 3648
 5541, 3156, 3646, 3536, 4014
 5542, 3178, 3729, 3182, 3181
 5543, 4004, 4116, 3822, 3932
 5544, 3863, 1643, 1597, 1640
 5545, 3156, 3831, 3162, 3646
 5546, 3579, 3735,  952,  955
 5547, 3488, 3473, 3305, 4094
 5548, 3173, 3243, 3297, 3242
 5549, 3305, 3473, 3303, 4094
 5550, 3303, 3244, 3305, 4117
 5551, 3156, 3154, 4003, 3646
 5552, 3304, 3472, 3174, 3303
 5553, 3244, 3242, 1166, 1167
 5554, 3734,  911,  918,  910
 5555,  950,  905,  148,  906
 5556,  947,  148,  905,  147
 5557, 3209, 3208, 3211, 3373
 5558, 3488, 4094, 3305, 3904
 5559, 3346, 3474, 3347, 3373
 5560, 4118, 3762,  920, 1595
 5561, 3346, 3474, 3473, 3249
 5562, 4049,  946,  948,  945
 5563, 3863, 1643,  241,  242
 5564, 4119, 4120, 1131, 4121
 5565, 4120, 4119, 4122, 1335
 5566, 3385, 1151, 3386, 1152
 5567, 4119, 4122, 1560, 1570
 5568, 4035,  950,  953,  906
 5569, 4035,  906,  151,  913
 5570, 4119, 1336, 4120, 4121
 5571, 3905, 3436, 3539, 1095
 5572, 4119,  301, 1560, 1335
 5573, 4119, 1570,  301,  300
 5574, 3372, 3592, 3831, 3394
 5575, 3453, 3579, 3760, 3735
 5576, 3372, 3374, 3460, 4123
 5577, 3372, 3474, 4041, 3831
 5578, 3770, 1091, 1118,  176
 5579, 3372, 3474, 3347, 4041
 5580,  953,   12,  150,  149
 5581, 2944, 2943, 2945, 3011
 5582, 3452,  912,  919,  911
 5583, 3739, 3742, 1064, 3853
 5584, 3135, 3341, 3079, 3038
 5585, 3079, 3135, 3342, 4009
 5586, 3526, 3438, 1039, 1040
 5587, 4009, 3137, 3281, 3341
 5588, 3038, 2908, 2950, 3134
 5589, 2975, 3063, 3016, 3013
 5590, 3341, 3038, 2975, 3079
 5591, 3341, 3079, 3061, 4009
 5592, 3295, 3283, 3942, 3491
 5593, 3549,  166,  900,  907
 5594, 2944, 2975, 3013, 2976
 5595, 3574,  908,  901,  909
 5596, 3215, 3023, 2954, 3552
 5597, 4116, 1304, 4124, 1328
 5598, 3754, 4116, 3822, 3823
 5599,  938,  902,  144,  145
 5600, 3539, 1095, 3436, 1068
 5601, 3549,  165,  166,  907
 5602, 3822, 3754, 4125, 3932
 5603, 4126,  948,  947,  945
 5604, 4116, 3932, 3649, 3754
 5605, 1804,  928,  162,  163
 5606, 3551,  907,  900,  908
 5607, 4004, 3822, 4116, 4008
 5608, 3064, 3323, 3329, 3816
 5609, 3429, 3621, 1068, 3525
 5610, 2928, 3143, 3081, 3082
 5611, 3731,  951,  950,  948
 5612, 3064, 3323, 3816, 3441
 5613, 1807,  935,  167,  168
 5614, 3917,  908,  909,  916
 5615, 3731,  905,  912,  904
 5616, 3734,  918,  917,  910
 5617, 4124, 4008, 1305, 1304
 5618, 4126,  911,  903,  904
 5619,  151, 1593,  150,  906
 5620, 4127, 4111, 1718, 1804
 5621, 4126,  910,  903,  911
 5622, 4116, 4008, 4124, 1304
 5623, 4116, 3823, 4124, 4008
 5624, 3735,  954,  951,  952
 5625, 3447, 1735, 4128, 1734
 5626, 4116, 1303, 3931, 1304
 5627, 3823, 4129, 1329, 4124
 5628, 3762,  912,  913,  920
 5629, 4035,  912,  905,  913
 5630, 3824, 3823, 4129, 1329
 5631, 4124, 1305, 4008, 4129
 5632,  927, 4130,  934, 1596
 5633, 2939, 2918, 2950, 3001
 5634, 3621, 3139, 3376, 3268
 5635, 3009, 2937, 3709, 3016
 5636, 2934, 2942, 2937, 2935
 5637, 3905, 1122, 4103, 1575
 5638, 3397, 3908, 3395, 3404
 5639, 3008, 3307, 3357, 3329
 5640, 3731,  904,  947,  905
 5641, 3278, 3818, 3835, 3919
 5642, 3014, 3013, 3009, 3016
 5643, 3012, 3528, 3828, 3548
 5644, 3619,  915,  914,  907
 5645, 3010, 3015, 3919, 3818
 5646, 2944, 3015, 2945, 2976
 5647, 3255, 3046, 3875, 3254
 5648, 3131, 3576, 3518, 3716
 5649, 3045, 3850, 3043, 3581
 5650, 3041, 3495, 3520, 3861
 5651, 3549,  935,  900,  167
 5652, 1806,  914,  164,  165
 5653, 3143, 3405, 3401, 3443
 5654, 3983, 1569,  385, 1623
 5655, 3918, 3619, 3917,  915
 5656, 3043, 3428, 3542, 3946
 5657, 3436, 3441, 1068, 1067
 5658, 3045, 3333, 3043, 3850
 5659, 3046, 4050, 3254, 3044
 5660, 3917,  915,  908,  916
 5661, 3598,  939, 3574, 3550
 5662, 3046, 3043, 3827, 4050
 5663, 3894, 4049,  945, 3600
 5664, 2982, 2981, 3041, 3333
 5665, 3206, 3488, 3904, 3711
 5666, 3895,  916,  909,  917
 5667, 3904, 3909, 3361, 3377
 5668,  913,  152,  151, 1594
 5669, 3305, 3904, 4117, 3903
 5670, 3740,  408, 3189,  407
 5671, 3904, 3362, 1178, 4117
 5672, 1594,  920,  913,  152
 5673, 3904, 4094, 3782, 3909
 5674, 3859, 1123, 3443, 1096
 5675, 3438, 1067, 3436, 1066
 5676, 1123, 1571, 1565, 3859
 5677, 3859, 1565, 4131, 1658
 5678, 3762,  919,  912,  920
 5679, 3859, 3443, 1123, 1122
 5680, 3859, 4131, 3399, 1658
 5681, 3859, 3443, 1122, 4103
 5682, 1595,  920,  152,  153
 5683, 3510, 3507,  984, 3891
 5684,  954, 4034, 4035, 3453
 5685, 3582, 3760, 3583, 1678
 5686, 3713, 1792, 1851, 1788
 5687, 3582, 3583, 1672, 1678
 5688, 3582, 3578, 1672, 3583
 5689, 3053, 3618, 3918, 4111
 5690, 3598,  943,  942,  940
 5691, 4132, 1721,  929,  930
 5692, 3053, 3618, 4127, 4133
 5693, 3258, 3618, 3051, 4133
 5694, 3894,  944,  903,  941
 5695, 3618,  915, 3918,  922
 5696, 3618,  922, 4111,  921
 5697, 3618, 3641,  914, 1805
 5698, 3618, 3918,  915, 3619
 5699, 1805,  921,  163,  164
 5700, 3515, 3707, 3714, 1892
 5701, 3618, 3619, 3642, 3918
 5702, 3792, 4067, 4043, 3788
 5703, 3537, 3129, 3837, 3513
 5704, 3452,  919,  918,  911
 5705, 3681, 3915,  924,  931
 5706, 3519, 3518, 3129, 3714
 5707, 3916,  923, 3915, 4132
 5708, 3503, 3513, 3512, 3516
 5709, 3293, 3193, 3190, 3194
 5710, 3551,  938,  901,  935
 5711, 3306, 3007, 3196, 3512
 5712, 3918,  922,  915,  923
 5713, 3052, 1717, 1720, 1716
 5714, 3762,  927,  919,  920
 5715, 3916,  924,  923,  916
 5716, 3432, 3492, 3929, 4069
 5717, 3681,  932, 1730, 1727
 5718, 3892,  924,  917,  925
 5719, 3757, 3758, 3769, 3756
 5720,  953,  150,  906,  149
 5721, 1724,  159,  930,  158
 5722, 3447, 4130, 3763, 4128
 5723, 3450, 3449, 3444, 4130
 5724, 3583, 1678, 1622, 1681
 5725, 3444, 4130, 3447, 3450
 5726, 1596,  927,  153,  154
 5727, 3447, 1732, 4130, 1735
 5728, 3447, 1731, 3451, 1732
 5729, 3757, 3447, 1734, 3446
 5730, 3447, 3451, 1731, 3446
 5731, 3897, 3642, 3918, 3051
 5732, 3220, 3980, 3067, 3224
 5733, 3261, 3182, 3897, 3642
 5734, 3893, 3897, 3918, 3916
 5735, 3054, 3897, 3261, 3262
 5736, 3184, 3916, 3892, 3915
 5737, 3897, 4132, 3916, 3915
 5738, 3970, 3987, 3994, 3766
 5739, 3612, 3954, 3945, 3922
 5740, 3954, 3693, 3694, 3612
 5741, 3980, 3224, 1273, 3176
 5742, 1890,  937,  169,   15
 5743, 3987, 3993, 3988, 3970
 5744, 3970, 3779, 3939, 3987
 5745, 2973, 3883, 3266, 3881
 5746, 4111,  929, 1721,  928
 5747, 2985, 3316, 3315, 3661
 5748, 2984, 2906, 2923, 2986
 5749, 3318, 3882, 2973, 3531
 5750, 3318, 3316, 3888, 3531
 5751, 3622,  169,  937,  936
 5752, 2971, 3107, 3532, 3531
 5753, 2967, 2973, 3266, 2974
 5754, 2995, 3046, 3255, 3044
 5755,  928,  929, 1721,  160
 5756,  180, 1797,  956, 1796
 5757, 2928, 3056, 3140, 3055
 5758, 3081, 3429, 3620, 3539
 5759, 3317, 3147, 3319, 3145
 5760, 3763, 1596, 1595, 1715
 5761, 4061,  934,  933,  926
 5762, 3983,  385,  384, 2097
 5763, 4048, 1726, 1725, 1722
 5764, 3146, 1462, 3145, 3212
 5765, 2953, 3021, 2952, 3022
 5766, 1727,  158,  931,  157
 5767, 2914, 2919, 2915, 2918
 5768, 1730,  933,  156,  932
 5769, 1334, 4134, 4122, 1335
 5770, 4012, 4134, 4122, 1334
 5771, 4011, 4012, 4091, 1556
 5772, 4012, 1616,  302, 1560
 5773, 4012, 1616,  303,  302
 5774, 4011, 1551, 4010, 3852
 5775, 3852, 1333, 4012,  303
 5776, 3852, 4012, 1333, 4135
 5777, 4003, 3296, 3865, 4136
 5778, 4003, 3296, 4136, 3297
 5779, 4003, 3545, 1089, 4136
 5780, 3100, 4001, 3106, 3105
 5781, 3299, 3296, 4003, 3298
 5782, 3543, 3864, 3529, 3155
 5783, 4045, 1743, 1827, 1879
 5784, 2930, 2936, 2935, 3118
 5785, 1061, 3536, 1062, 4040
 5786, 2998,  172,  943,  171
 5787,  404,  162,  928,  161
 5788, 3299, 3475, 3472, 3474
 5789, 3653, 3592, 4110, 4082
 5790, 3158, 3160, 3161, 3384
 5791,  404,  161,   14,  162
 5792, 4005, 4114, 3162, 4112
 5793, 3980, 1298, 3978, 1297
 5794, 4133, 1804, 1872, 1805
 5795, 3067, 3176, 3980, 3277
 5796, 4040, 3298, 3471, 4003
 5797, 3299, 3209, 3473, 3305
 5798, 3299, 3154, 4003, 3296
 5799, 3244, 3903, 1171, 3848
 5800, 3209, 3474, 3346, 3373
 5801, 3682, 3456, 3339, 3460
 5802, 3682, 3684, 3373, 3208
 5803, 3683, 3373, 3211, 3208
 5804, 3202, 3211, 3210, 3846
 5805, 3208, 3845, 1841, 3685
 5806, 3208, 3210, 3685, 1841
 5807, 3402, 3438, 3401, 3436
 5808, 2960, 3082, 3139, 3085
 5809, 3197, 3006, 3329, 3007
 5810, 3331, 3402, 3200, 3322
 5811, 3295, 3196, 3283, 3491
 5812, 4128, 1596, 1619,  400
 5813, 3331, 3533, 3403, 3332
 5814, 4051, 3520, 3861, 3946
 5815, 3520, 3345, 3946, 4051
 5816, 3390, 3198, 3927, 3494
 5817, 3520, 3946, 3043, 3861
 5818, 3199, 3198, 3520, 3494
 5819, 3046, 3875, 4050, 3827
 5820, 4137, 4138, 3807, 4139
 5821, 4074, 4138, 3807, 1402
 5822, 4138, 3794, 4074, 3998
 5823, 1733,  933,  934,  155
 5824, 3808, 3807, 3796, 4074
 5825, 1818, 3808, 3807, 3796
 5826, 3799, 1830, 3796, 3808
 5827, 3759, 3761, 1681, 3920
 5828, 1736,   13,  155,  934
 5829, 3759, 3920, 1681, 1666
 5830,   16, 1666,  176, 1622
 5831, 1666,  176, 1622, 3759
 5832, 3578, 1715, 1644, 1672
 5833, 3759, 3111, 3920,  176
 5834,  176, 3579, 1622, 3759
 5835, 3705, 3791, 2104, 1563
 5836, 3643, 4032,  170, 1852
 5837, 4031, 1881, 4030, 3499
 5838, 3877,  956, 4032, 3500
 5839, 3875, 1709, 3906, 1701
 5840, 3875, 4042, 3906, 1709
 5841, 3889, 3877, 3000, 3878
 5842, 3000, 3499, 3260, 3878
 5843, 3414, 3418, 3425, 3426
 5844, 3419, 3413, 3420, 3733
 5845, 3171, 3165, 3420, 3166
 5846, 3549,  900, 3551,  907
 5847, 3414, 3419, 3165, 3416
 5848, 4132,  930,  929,  922
 5849, 3550,  937,  939,  936
 5850, 3894,  903,  910,  902
 5851, 3413, 3703, 3418, 4022
 5852, 3418, 3414, 3415, 3413
 5853, 4140, 3418, 4022, 3426
 5854,  935,  167,  143,  900
 5855, 3418, 4022, 3426, 3413
 5856, 3415, 3688, 3752, 3704
 5857, 3875, 1694, 3827, 1692
 5858, 3550,  940,  939,  937
 5859, 3618, 3918, 4111,  922
 5860, 3690, 3693, 3696, 3612
 5861, 3617, 3612, 3696, 3609
 5862, 3690, 3612, 3611, 3694
 5863, 4111, 1718,  928, 1721
 5864,  163,  921, 1804,  928
 5865, 3262, 4141, 1722, 1719
 5866, 3413, 3426, 3768, 4022
 5867,  944,  904,  146,  147
 5868, 3731,  950,  905,  947
 5869, 1718,  161,  928,  160
 5870, 4049,  949,  948,  946
 5871, 3417, 3416, 3415, 3039
 5872, 3417, 3415, 3425, 3424
 5873, 2904, 2908, 2941, 2909
 5874, 3024, 3022, 2953, 3023
 5875, 3889,  170,  940,  937
 5876, 4111,  921,  928, 1804
 5877, 3549,  167,  900,  166
 5878, 3894, 3574,  902,  909
 5879, 2991, 3035, 3097, 3122
 5880, 2990, 3099, 3213, 3212
 5881,  159,  929,  160, 1721
 5882, 2991, 3087, 3099, 2989
 5883, 2991, 3099, 3087, 3127
 5884, 3618,  921, 1805,  914
 5885, 3915,  931,  930,  923
 5886, 4035,  906,  913,  905
 5887, 3069, 3036, 3072, 3126
 5888, 4141, 1720, 1723, 1719
 5889, 3328, 3070, 1391, 1415
 5890, 3618,  922,  914,  915
 5891, 2948, 2949, 3231, 3023
 5892, 3497, 3503, 3505, 3509
 5893, 3200, 3390, 3198, 3194
 5894, 3194, 3198, 3294, 3927
 5895, 3293, 3291, 3743, 3928
 5896, 1797,  170,   15,  180
 5897, 2979, 2110,  398,  397
 5898, 3498, 3880, 3502, 3501
 5899, 3574,  941,  902,  938
 5900, 3112, 3391, 3109, 3628
 5901, 3254, 1679, 3256, 3973
 5902, 3618, 3918, 3642, 3051
 5903, 4128, 1619, 1672, 1621
 5904, 1890,   15,  170,  937
 5905, 3440, 3397, 3393, 3406
 5906,  938,  935,  144,  901
 5907, 3550,  936,  938,  935
 5908, 3550,  939,  938,  936
 5909, 3849, 2051, 3850, 2078
 5910, 3414, 3605, 3413, 3419
 5911, 3417, 3611, 3413, 3416
 5912, 3875, 3827, 4042, 1692
 5913, 3558, 3171, 3724, 3559
 5914, 3916,  916,  917,  924
 5915, 3508,  957,  984,  983
 5916, 3916,  924, 3915,  923
 5917, 3892,  925,  917,  918
 5918, 3880,  410,  409, 2002
 5919, 3688, 3165, 3415, 3164
 5920, 3414, 3416, 3605, 3419
 5921, 1796,  180,  181,  956
 5922, 1734, 1619, 1621,  399
 5923, 3450,  926,  933,  925
 5924, 3368, 3367, 3887, 3884
 5925, 1724,  158,  930,  931
 5926, 3598,  940,  942,  939
 5927, 3092, 3860, 3317, 3319
 5928, 3889,  171,  940,  170
 5929, 3681,  932,  931,  924
 5930, 1797,  956, 1796, 3500
 5931, 3731,  912,  911,  904
 5932,  941,  902,  938,  145
 5933, 3574,  939,  941,  938
 5934, 2990, 3212, 2986, 2989
 5935, 3894, 4126,  903,  944
 5936, 3574,  942,  941,  939
 5937, 3600,  943,  945,  942
 5938, 2930, 2934, 2975, 2937
 5939, 3147, 3787, 3867, 3751
 5940, 3599,  172,  946,  943
 5941, 3319, 3787, 3860, 3145
 5942, 3641, 1806,  907,  914
 5943, 3894, 4126,  944,  945
 5944, 3695, 3719, 3721, 3694
 5945, 3762,  919,  927,  926
 5946, 2998,  171,  943,  940
 5947, 1804,  404,  162,  928
 5948, 3633, 3695, 3631, 3630
 5949, 3695, 3631, 3630, 3694
 5950, 3928, 3389, 2055, 2056
 5951, 3052, 1720, 1719, 1716
 5952, 3725, 3636, 3695, 3637
 5953, 3189, 1725, 3680, 1728
 5954, 1727,  932,  157,  931
 5955, 3633, 3695, 3720, 3636
 5956,  944,  941,  146,  903
 5957, 3894,  942,  944,  941
 5958, 4126,  911, 3731, 3734
 5959, 3695, 1838, 3644, 3720
 5960,  950,  906,  148,  149
 5961, 3695, 3644, 1838, 3697
 5962, 3229, 3675, 3940, 3689
 5963, 4114, 3162, 4112, 3250
 5964, 2999, 1844, 1885, 1873
 5965, 3573, 3572, 3251, 3934
 5966, 3343, 3753, 3700, 3679
 5967, 3600,  946,  945,  943
 5968, 3508,  985,  984,  958
 5969, 3681, 1727,  931,  932
 5970, 3894,  910, 3895,  909
 5971, 3700, 3679, 1903, 3678
 5972, 3700, 3753, 1907, 1918
 5973, 3738, 1010,  173,  172
 5974, 3700, 3036, 3678, 3126
 5975, 3732,  919,  926,  918
 5976, 3894,  903, 4126,  910
 5977, 3582, 1644, 1678, 1672
 5978,  947,  944,  147,  904
 5979, 3700, 1907, 3753, 3959
 5980, 4126,  945,  947,  944
 5981, 3452,  912, 3762,  919
 5982, 3983, 3986, 3985, 1518
 5983, 1593,  954,  179,  953
 5984, 3628, 1651, 1649, 1686
 5985, 3439, 1038, 3478, 1039
 5986, 3700, 3678, 1913, 3126
 5987, 3064, 3429, 3816, 3525
 5988, 3731,  948,  950,  947
 5989, 3437, 3406, 3440, 3393
 5990, 3115, 3920, 3114, 4142
 5991, 3395, 3406, 3747, 3393
 5992, 3181,  949,  946,  173
 5993, 4118, 1594, 1595,  920
 5994, 3943, 3756,  175, 3770
 5995, 3112, 3389, 3390, 3392
 5996, 3914, 2096,  383, 2095
 5997, 3180,  949,  174,  952
 5998, 3730,  949,  951,  948
 5999, 3490, 3930, 1971, 1998
 6000, 3428, 3493, 3403, 3533
 6001,  950,  947,  148,  905
 6002, 3760, 3583, 1678, 1622
 6003, 3400, 3910, 3403, 3404
 6004, 3433, 3434, 3435, 3403
 6005, 3397, 3406, 3404, 3395
 6006, 3444, 3449, 3454, 3452
 6007, 3180,  175,  952,  174
 6008, 3542, 3043, 4047, 3826
 6009, 3391, 2983, 3219, 3345
 6010, 3390, 3494, 3520, 3198
 6011, 3110, 3920, 1680, 3114
 6012, 3318, 3316, 3531, 3532
 6013, 3368, 3884, 3319, 3367
 6014, 3943, 3180,  174,  175
 6015, 3756, 3180,  952, 3579
 6016, 3317, 3093, 2989, 3212
 6017, 2965, 2973, 3128, 3266
 6018, 2980, 3233, 3045, 2993
 6019, 2971, 3531, 2973, 3107
 6020, 3086, 3093, 3092, 3096
 6021, 3730,  948, 4049,  949
 6022,  953,  950,  149,  906
 6023, 3255, 3254, 4143, 3874
 6024, 4034,  953,  950,  951
 6025, 3176, 1249, 1272, 3624
 6026, 3624, 3246, 4065, 1249
 6027,  179,  953,   12,  150
 6028, 1593,  179,  150,  953
 6029, 4034,  954,  953,  951
 6030, 3272, 3674, 3555, 3363
 6031, 3579,  955,  175,  176
 6032, 3761, 1672, 1681, 1621
 6033, 3624, 3176, 3224, 2936
 6034, 1589,  176, 1666, 3920
 6035, 1620,  178, 3760,  955
 6036, 2936, 3624, 3118, 3246
 6037, 3624, 1248, 3588, 3077
 6038, 3624, 3588, 1272, 3176
 6039,  176, 3111, 3920, 1589
 6040, 2935, 3077, 3624, 3588
 6041, 3905, 1575, 1121, 1122
 6042, 3029, 3659, 3546, 3554
 6043, 3271, 3562, 4065, 3554
 6044, 3569, 3659, 3554, 3546
 6045, 2912, 2991, 3030, 3035
 6046, 3674, 3547, 3840, 3567
 6047, 3563, 3272, 3562, 3602
 6048, 3030, 3031, 2991, 2902
 6049, 3547, 3570, 3676, 4052
 6050, 3029, 3074, 3623, 2933
 6051, 3547, 3570, 3546, 3676
 6052, 1593,  178,  179,  954
 6053, 2979, 2110,  397, 2109
 6054, 1587, 1119,  240, 1118
 6055, 2979,  405, 3065, 4142
 6056, 2979, 2983, 2110, 2109
 6057, 1620,  178,  955,  177
 6058, 1622, 1620,  955,  177
 6059, 3108, 1642, 2979, 3114
 6060, 2979, 3114, 1642, 1590
 6061, 3114, 1590, 1652, 1680
 6062, 2979, 3114, 4142, 3065
 6063, 3108, 2983, 2979, 3109
 6064, 3369, 3477, 3103, 3486
 6065, 3369, 3368, 3096, 3094
 6066, 3368, 3886, 3319, 3884
 6067, 3877,  171,  170,  956
 6068, 3532, 3367, 3319, 3662
 6069, 3318, 3257, 3128, 3882
 6070, 3147, 3319, 3145, 3787
 6071, 3092, 3368, 3860, 3319
 6072, 1797,  956,  170,  180
 6073, 4144, 1591,   66,   65
 6074, 3560,  687, 4144,   66
 6075, 4144, 2921, 1647, 1592
 6076,  184,  959, 1783,  183
 6077, 3664, 3171, 3722, 4144
 6078, 1792,  182,  957,  181
 6079, 3560, 3557, 1713, 3724
 6080, 4144,  694, 3664, 1592
 6081, 3560, 4144,  687, 3722
 6082, 1796,  181,  957,  956
 6083, 4144,   65, 1592, 1591
 6084, 3946, 4047, 3746, 3434
 6085, 3877,  983,  171,  956
 6086, 3744, 3854, 3440, 3853
 6087, 4047, 3850, 3861, 2079
 6088, 3043, 3850, 4047, 3581
 6089, 4047, 2106, 3746, 3826
 6090, 4047, 4051, 2106, 2079
 6091, 3837, 1854, 1894, 1859
 6092, 3693, 4104, 4105, 3798
 6093, 3611, 3630, 3631, 3694
 6094, 1788,  958,  182,  183
 6095, 4145, 1861, 1779, 1859
 6096, 3742, 1064, 3770,  174
 6097, 3954, 3945, 3922, 4146
 6098, 3764, 3766, 3612, 3609
 6099, 3390, 3389, 3927, 3928
 6100, 3690, 3611, 3631, 3694
 6101, 3955, 3693, 4104, 3696
 6102, 3413, 4022, 3733, 3609
 6103, 3418, 3699, 4147, 3614
 6104,  959, 1783, 1788, 3836
 6105, 3415, 3164, 3424, 3752
 6106, 3164, 3688, 3752, 3415
 6107, 3038, 3135, 3342, 3079
 6108, 3343, 3036, 3038, 3074
 6109, 3232, 3071, 3098, 2990
 6110, 2975, 3341, 3060, 3063
 6111, 3343, 3079, 3342, 3679
 6112, 3135, 3073, 3133, 3134
 6113, 3341, 4009, 3137, 3135
 6114, 3168, 1199, 3034, 4013
 6115,  960,  184,  959, 1783
 6116, 3058, 3357, 3270, 3329
 6117, 2975, 3013, 3341, 3063
 6118, 3020, 2953, 3344, 3021
 6119, 2978, 3029, 2903, 3078
 6120, 1927, 4072, 3981, 3645
 6121, 3982, 1870, 1834, 3645
 6122, 4146, 3693, 3694, 3954
 6123, 3480, 3478, 3853, 1038
 6124, 3645, 4072, 3800, 4148
 6125, 3802, 3801, 4146, 4148
 6126, 3695, 3802, 3644, 3698
 6127, 4149, 3569, 3561, 3570
 6128, 2989, 2902, 3121, 3088
 6129, 2902, 3273, 3121, 3088
 6130, 3072, 3021, 3964, 3073
 6131, 4150,  275,  276, 1197
 6132, 2899, 3067, 2968, 3277
 6133, 1779,  961,  960,  185
 6134, 3350, 3975, 3398, 3351
 6135, 3256, 1696, 1682, 1679
 6136, 3319, 3315, 2984, 3316
 6137, 3110, 1680, 1589, 1641
 6138, 4024,  186,  187,  962
 6139, 4028, 4029, 1843, 4030
 6140, 3401, 3406, 3436, 3905
 6141, 3323, 3329, 3816, 3526
 6142, 1779,  185, 1773,  961
 6143, 3191, 3193, 3478, 3439
 6144, 2923, 2987, 2985, 2986
 6145, 3402, 3195, 3323, 3439
 6146, 3976, 1015, 1041, 1014
 6147, 3293, 3193, 3743, 3291
 6148, 3270, 3329, 3357, 3817
 6149, 3329, 3357, 3527, 3516
 6150, 3064, 3429, 3441, 3816
 6151, 3398, 3399, 1661, 1693
 6152, 3838, 3513, 3514, 3516
 6153, 1773, 3951, 4151,  961
 6154, 3666, 1098, 1071, 1072
 6155, 3832, 1018, 3815, 1019
 6156, 3439, 3853, 1038, 1065
 6157, 4024,  962, 1771,  186
 6158, 3357, 3516, 3839, 3527
 6159, 3834, 3537, 3245, 3818
 6160, 3270, 3245, 3976, 3817
 6161, 3236, 3324, 1995, 2022
 6162, 3661, 4050, 3320, 3044
 6163, 4024,  187,  963,  962
 6164, 3238,  962,  963,  989
 6165, 2927, 3197, 3322, 3042
 6166, 3215, 3431, 3003, 3430
 6167, 2982, 2995, 2924, 3044
 6168, 2946, 2949, 2948, 2954
 6169, 3070, 3586, 3324, 3328
 6170,  964, 4152, 3809,  965
 6171, 2991, 2902, 3121, 2989
 6172, 3236, 3586, 1995, 3324
 6173, 3021, 3964, 3073, 3489
 6174, 3315, 3319, 3662, 3316
 6175, 3973, 3661, 4050, 3320
 6176, 3829, 1017, 1016,  990
 6177, 3306, 3196, 3007, 3216
 6178, 3479, 3741, 3502, 3738
 6179, 4151,  988,  962,  989
 6180, 3891, 3512, 3510, 3509
 6181, 3376, 1070, 1043, 1044
 6182, 3004, 2950, 3001, 3002
 6183, 3366, 3849, 3966, 2077
 6184, 4152,  964,  189,  965
 6185, 3503, 3953, 3713, 3514
 6186, 3192, 3891, 3516, 3527
 6187, 3576, 4067, 3131, 3348
 6188, 3693, 3802, 3695, 3698
 6189, 3809,  965,  992,  991
 6190, 3644, 3698, 3645, 1870
 6191, 1810, 3698, 3982, 3797
 6192, 4153,  189,  274,  273
 6193, 3793, 3800, 3802, 3982
 6194, 3693, 3802, 3801, 4146
 6195, 1196, 1195,  993,  966
 6196, 1196,  992,  966,  993
 6197, 3245, 1015, 3976, 1014
 6198, 3695, 3802, 3721, 3644
 6199, 3982, 3645, 1834, 3800
 6200, 3629, 3640, 3637, 3636
 6201, 3636, 3695, 3637, 3633
 6202, 4153,  965,  190,  966
 6203, 3633, 3695, 3630, 3719
 6204, 3629, 3948, 3639, 3638
 6205,  278, 3080, 1199, 1200
 6206, 4025,  192,  968,  967
 6207, 3693, 3694, 3695, 3721
 6208, 3701, 3418, 3702, 3614
 6209, 3690, 3695, 3637, 3725
 6210, 3690, 3692, 3955, 3691
 6211, 3701, 4154, 3614, 3702
 6212, 1659, 3581, 4050, 3827
 6213, 3227, 3089, 3103, 3486
 6214, 3086, 3095, 3089, 3091
 6215, 2911, 3094, 3088, 2989
 6216, 3127, 3099, 1437, 3098
 6217, 1437, 3098, 1413, 3127
 6218, 3099, 1438, 3212, 1437
 6219, 3099, 3093, 2989, 3087
 6220, 2991, 3121, 3127, 3087
 6221, 3404, 3406, 3747, 3395
 6222, 3400, 3405, 3332, 3910
 6223, 3400, 3406, 3405, 3404
 6224, 1242, 1048, 1021, 1022
 6225, 3406, 4101, 3905, 3405
 6226, 3378, 1766, 1191, 1190
 6227, 3382,  971,  997,  970
 6228, 3406, 3905, 4101, 3747
 6229, 3744, 3437, 3440, 3745
 6230, 3891,  985, 1011,  984
 6231, 3379, 1825, 1190, 1189
 6232, 3533, 3906, 4042, 3435
 6233, 3503, 3516, 3510, 3514
 6234, 3503, 3953, 3508, 3504
 6235, 3510, 3516, 3527, 3839
 6236, 4026, 1193,  968,  995
 6237, 3510, 3516, 3891, 3527
 6238, 4131, 3352, 3859, 3399
 6239, 3350, 3375, 2956, 3354
 6240, 2996,  969,  968,  193
 6241, 3523, 3276, 3407, 3669
 6242, 3350, 3523, 3975, 3353
 6243, 4027, 1216, 1215, 1192
 6244, 2928, 3143, 3140, 3057
 6245, 3276, 3523, 3350, 3355
 6246, 3668, 3523, 3669, 3276
 6247, 3523, 3670, 3353, 3666
 6248, 3350, 3407, 3523, 3276
 6249, 3356, 3085, 3398, 3263
 6250, 3356, 3407, 3276, 3408
 6251, 3378,  194,  195,  970
 6252, 4026,  996,  995,  969
 6253, 3084, 3356, 3263, 3085
 6254, 3380,  972,  971,  196
 6255, 3140, 3540, 3055, 3255
 6256, 2964, 3084, 3083, 2965
 6257, 3084, 3085, 3263, 3082
 6258, 3850, 3851, 2052, 2051
 6259, 1218,  995, 1217, 1022
 6260, 2967, 2970, 3275, 2968
 6261, 3264, 3814, 3874, 3128
 6262, 3773, 4017, 4155, 3671
 6263, 3970, 3988, 3924, 3989
 6264, 3924, 3765, 3971, 3989
 6265, 3581, 2106, 2105, 2079
 6266, 3993, 4016, 4084, 4156
 6267, 4027,  970,  997,  996
 6268, 3778, 3777, 4017, 4092
 6269, 4157, 1213, 3379, 1214
 6270, 4017, 3784, 3776, 3777
 6271, 3380,  196,  971,  195
 6272, 3021, 3022, 3344, 3489
 6273, 3378, 3379, 1825, 1190
 6274, 3235, 3025, 3584, 3586
 6275, 2978, 3036, 3119, 3074
 6276, 2919, 2938, 3006, 2918
 6277, 3045, 3849, 2993, 3233
 6278, 4116, 4008, 3822, 3823
 6279, 3378,  195,  971,  970
 6280, 3161, 3529, 3543, 3530
 6281, 4004, 3932, 3162, 3931
 6282, 3382, 4027, 1215, 1191
 6283, 3823, 3754, 4125, 3822
 6284, 1756,  197,  972,  196
 6285, 3162, 3831, 4112, 3475
 6286, 4125, 3754, 3544, 3932
 6287, 1759,  974,  973,  198
 6288, 4033, 3843, 3956, 4158
 6289, 3633, 3629, 3630, 3631
 6290, 3156, 3534, 3530, 3535
 6291, 4159, 1056, 1082, 1055
 6292, 4125, 3544, 3933, 3932
 6293, 1766, 1190,  268,  269
 6294, 4004, 3822, 3301, 4125
 6295, 3757, 3920, 3115, 4142
 6296, 1756,  972,  197,  973
 6297, 3736, 3729, 3180, 3730
 6298, 3454, 3729, 3736, 3730
 6299, 4160, 4161, 1081, 4162
 6300, 3453, 3582, 4118, 3760
 6301, 3577, 3760, 3579, 3583
 6302, 3313, 4163, 3309, 3926
 6303, 3925, 3313, 3926, 3923
 6304, 2095, 1555, 2094,  382
 6305, 1815, 1819, 3958,  265
 6306, 3634, 3720, 3719, 1924
 6307, 1832, 1830, 3796, 3799
 6308, 3377, 1182, 1183, 1206
 6309, 4071, 1956, 4073, 3998
 6310, 4071, 3981, 1832, 1764
 6311, 1822, 1188, 1819,  266
 6312, 4071, 1929, 4073, 1956
 6313, 4077, 3870, 4078, 4164
 6314, 3808, 4071, 1764, 4073
 6315, 4073, 4071, 1764, 1929
 6316, 1179, 3909, 1173, 1174
 6317, 4071, 3981, 1764, 1928
 6318, 1628, 3309, 1554, 3926
 6319, 3309, 3926, 1628, 3314
 6320, 3309, 3310, 1552, 3913
 6321, 3913, 3309, 3311, 4163
 6322, 3313, 3309, 4163, 3311
 6323, 3629, 3633, 3635, 3636
 6324, 3309, 2092, 1554, 3926
 6325, 3657, 1003, 1029, 1002
 6326, 1761,  199, 3844,  974
 6327, 3040, 1977, 1976, 1950
 6328, 1552, 2092, 1554, 3309
 6329, 3159, 3153, 3932, 3648
 6330, 3139, 3082, 3442, 3085
 6331, 3266, 3356, 2965, 3276
 6332, 2957, 3270, 3268, 3525
 6333, 3350, 3083, 2956, 3085
 6334, 3084, 3356, 3266, 3265
 6335, 2988, 3255, 3055, 3257
 6336, 3350, 3355, 3083, 3276
 6337, 3085, 3082, 3399, 3263
 6338, 3081, 3401, 3443, 3143
 6339, 3442, 3085, 3399, 3352
 6340, 1811, 1183,  261,  262
 6341, 1813, 1186, 1185,  264
 6342, 3687, 3685, 1786, 1839
 6343, 4165, 1175,  257,  256
 6344, 3350, 3352, 3375, 3353
 6345, 3350, 3276, 3356, 3407
 6346, 3429, 1068, 3621, 3539
 6347, 3340,  977, 1003,  976
 6348, 3473, 4094, 3230, 3303
 6349, 3524, 3666, 1098, 1071
 6350, 3267, 1044, 3269, 1017
 6351, 3690, 3611, 3617, 3631
 6352, 1043, 3376, 1044, 3269
 6353, 3358, 3027, 3665, 1044
 6354, 3355, 3587, 1294, 3589
 6355, 3914, 1555, 2094, 2095
 6356, 2943, 3358, 3268, 3267
 6357, 1769,  977,  976,  201
 6358, 3077, 2937, 3076, 3528
 6359, 3864, 3543, 1581, 1640
 6360, 3909, 1174, 1179, 1180
 6361, 3358, 3027, 3589, 3665
 6362, 3220, 3227, 3228, 3229
 6363, 1775,  978,  977,  202
 6364, 3532, 3100, 3107, 2971
 6365, 1178,  258, 1826, 1180
 6366, 3339,  978, 1004,  977
 6367, 3092, 3860, 3368, 3096
 6368, 3350, 3524, 3375, 3354
 6369, 3101, 3104, 4090, 4107
 6370, 3101, 3979, 3104, 4107
 6371, 3100, 2971, 2970, 3107
 6372, 3164, 3752,  699, 3424
 6373, 1781,  978,  202,  203
 6374, 3106, 3104, 4090, 3101
 6375, 2971, 3107, 2973, 2974
 6376, 3274, 3276, 3421, 4166
 6377, 1180, 1179, 1178,  258
 6378, 3990, 4084, 4167, 3786
 6379, 3993, 3783, 3923, 3786
 6380, 3994, 3993, 3991, 3987
 6381, 3993, 3786, 3990, 3785
 6382, 4016, 3988, 3970, 4168
 6383,  358, 3914, 1518, 1559
 6384, 1781,  979,  978,  203
 6385, 3626, 3211, 3373, 3209
 6386, 3914, 1559,  358, 1617
 6387, 1790,  205,  980,  204
 6388, 3914,  384, 3983, 1559
 6389, 3914, 1559,  383,  384
 6390, 2096, 3914,  384, 3983
 6391, 3911, 2094, 3914, 1555
 6392, 3914, 3912, 2095, 2094
 6393, 3914, 1555, 2095,  383
 6394, 3066, 3090, 3088, 3094
 6395, 3683,  979,  980, 1006
 6396, 1786,  204,  980,  979
 6397, 3104, 4090, 4107, 4106
 6398, 3104, 4090, 4106, 1655
 6399, 3652, 4169, 3830, 1058
 6400, 3699, 3425,  684,  691
 6401, 3101, 4090, 3106, 3977
 6402, 3846,  981, 1008, 1007
 6403, 3683, 1006,  980, 1007
 6404, 1655, 3106, 3104, 4090
 6405, 3552, 3023, 3024, 3584
 6406, 3023, 3025, 3584, 3235
 6407, 1171, 1166, 3243, 1165
 6408, 3586, 3585, 3584, 1969
 6409, 3586, 3585, 1968, 4046
 6410, 3935, 3936, 1159, 1158
 6411,  980, 3846,  981,  205
 6412, 4096, 1470, 1471, 1495
 6413, 2904, 2905, 2901, 2911
 6414, 3025, 3070, 3409, 3586
 6415, 3070, 3236, 3324, 3586
 6416, 3695, 3636, 3725, 3720
 6417, 3552, 3024, 3023, 3022
 6418, 3130, 3002, 3137, 3134
 6419, 4040, 1033, 1034, 1060
 6420, 3136, 2976, 3281, 3137
 6421, 2939, 2976, 2940, 3137
 6422, 3203,  982, 1009, 1008
 6423,  982, 3203, 3847, 1794
 6424, 3215, 3930, 3217, 3553
 6425, 1810, 1382,  343,  344
 6426, 3215, 3431, 3930, 3553
 6427, 1794,  982,  981,  206
 6428, 3215, 3017, 3059, 3218
 6429, 2954, 3348, 3552, 3022
 6430, 3131, 3576, 3716, 4067
 6431, 3788, 3431, 3792, 4067
 6432, 3645, 3800, 3982, 3802
 6433, 3800, 4148, 4072, 3998
 6434, 3954, 4105, 3996, 3798
 6435, 3801, 3794, 3996, 3995
 6436, 3800, 3794, 3801, 3998
 6437, 3360, 1036, 1035, 1009
 6438, 3954, 3801, 4037, 3945
 6439, 4170, 3992, 3991, 3995
 6440, 3904, 3711, 3361, 3362
 6441, 3995, 4171, 4170, 3992
 6442, 4171, 2009, 4084, 3992
 6443, 4165,  207,  982,   17
 6444, 4172, 1163, 1158, 1157
 6445, 4173, 1063,  209,  210
 6446, 3990, 4174, 4175, 4170
 6447, 3990, 4171, 4175, 4084
 6448, 4165,   17,  982,  206
 6449, 4171, 4176, 1983, 4100
 6450, 2011, 4176, 2010, 4175
 6451, 3738,  172,  171,  983
 6452, 3508,  957,  983,  956
 6453, 4176, 2010, 4175, 4171
 6454, 3514,  959,  985,  958
 6455, 4171, 4175, 4084, 2010
 6456, 3615, 3614, 3810,  689
 6457, 3040, 3632, 3039, 3416
 6458, 3637, 3726, 3636, 3640
 6459, 3738,  983, 1010,  172
 6460, 3514,  986,  985,  959
 6461, 3713,  958, 1788,  959
 6462, 3260, 3000, 3896, 3499
 6463, 3615,  689, 3810, 3640
 6464, 3507, 1010,  984, 1011
 6465, 3701, 4154, 3702, 3811
 6466, 3617, 3703, 3609, 3696
 6467, 3690, 3637, 3695, 3631
 6468, 3617, 3692, 3703, 3696
 6469, 3834,  961,  987,  960
 6470, 1375, 1374, 3050, 3961
 6471, 3439, 1066, 1065, 1039
 6472, 3049, 3961, 3050, 3805
 6473, 3961,  426, 1934, 1933
 6474, 1779, 1773, 4145,  961
 6475, 3836, 1783,  960,  959
 6476, 4151,  962,  988,  961
 6477, 3961,  426, 1933,  427
 6478, 3497, 3504, 3503, 3508
 6479, 3838,  986,  960,  987
 6480, 3961, 3962, 1933, 1934
 6481, 3961,  427, 1933, 1762
 6482,  986, 3839,  987, 3838
 6483, 3034, 1222, 1198, 1199
 6484, 3697, 1816, 3691, 1810
 6485, 1932, 1933, 1762, 3805
 6486, 3136, 3129, 3138, 3279
 6487, 3130, 3002, 3349, 3131
 6488, 3829,  988,  989, 1015
 6489, 3306, 3131, 3519, 3432
 6490, 3307, 3329, 3192, 3516
 6491, 3809,  990,  964,  991
 6492, 2943, 2956, 2957, 3268
 6493, 1220,  992, 1197, 1196
 6494, 3832, 1019, 1046, 1045
 6495, 3667, 1292, 1316, 1100
 6496, 1194, 1193,  995,  968
 6497, 3037, 2950, 3038, 2910
 6498, 3417, 3699, 3424, 3425
 6499, 3829, 1015,  989, 1016
 6500, 4022, 3703, 1454, 3609
 6501, 4177, 3418, 3426, 3425
 6502, 3702, 3703, 4140, 3418
 6503, 3330, 3533, 3875, 3046
 6504, 3703, 4140, 3418, 4022
 6505, 2963, 3177, 2968, 3422
 6506, 3276, 4166, 3407, 3421
 6507, 1218,  993, 1195, 1194
 6508, 1194,  993,  967,  994
 6509, 1218,  994, 1021, 1020
 6510, 3349, 3575, 3348, 3022
 6511, 2962, 2963, 3177, 2968
 6512, 3274, 3266, 3408, 4109
 6513, 3629, 3616, 3640,  696
 6514, 3356, 3265, 3263, 3398
 6515, 3789, 3024, 3790, 4053
 6516, 3134, 3130, 3349, 3133
 6517, 1766,  269, 1191, 1190
 6518, 4098, 3135, 3073, 3133
 6519, 2996, 4026, 1193,  968
 6520, 3218, 3521, 3217, 3214
 6521, 3465, 3596, 3597, 3651
 6522, 4178, 1024, 1051, 1050
 6523, 3596, 4129, 3338, 3321
 6524, 4004, 3596, 3822, 4008
 6525, 4027,  996,  969,  970
 6526, 3596, 3822, 4008, 4129
 6527, 3931, 4007, 4114, 4004
 6528, 3629, 3948, 3632, 3639
 6529, 3871,  998,  971,  972
 6530, 3014, 3010, 3013, 3239
 6531, 3033,  991, 3809, 3815
 6532, 3382,  997,  971,  998
 6533, 4080,  998, 1025, 1024
 6534, 4179,  975, 1001,  974
 6535, 1222, 3815, 3548, 3033
 6536, 3034, 3033, 3014, 3809
 6537, 3380, 1756, 1825, 3868
 6538, 4180, 3034, 3240, 3809
 6539, 3237,  963, 3809,  990
 6540, 3462, 3885, 3957, 3457
 6541, 4164,  999, 1025,  998
 6542, 3014, 3034, 3709, 3033
 6543, 3076, 3528, 3548, 3077
 6544, 3709, 3548, 3034, 3076
 6545, 4179,  974, 1001, 1000
 6546, 3012, 3033, 3828,  990
 6547, 1226, 3554, 1225, 4065
 6548, 3660, 3659, 3554, 3569
 6549, 4179, 1001,  975, 1002
 6550, 4181, 1029, 1056, 1055
 6551, 4075, 1029, 1028, 1002
 6552, 4124, 3823, 4129, 4008
 6553, 3546, 3562, 3569, 3561
 6554, 3841, 1002,  976, 1003
 6555, 3657, 1030, 1029, 1003
 6556, 1187, 1210, 3956, 3899
 6557, 3060, 2933, 2932, 3062
 6558, 3590, 3286, 3288, 3287
 6559, 3653, 3288, 3652, 3590
 6560, 3592, 3653, 3288, 4169
 6561, 3591, 3592, 3657, 3458
 6562, 3830, 1032, 1058, 1031
 6563, 4123, 1005, 1031, 3460
 6564, 3339, 1005, 1004,  978
 6565, 3596, 4182, 3652, 4006
 6566, 4005, 4006, 3596, 4113
 6567, 4005, 4082, 3338, 4007
 6568, 3831, 3592, 4082, 3394
 6569, 3288, 1057, 1056, 1030
 6570, 3592, 3831, 3653, 3830
 6571, 3378,  970, 3381,  194
 6572, 1191, 1190, 3382, 3378
 6573, 3536, 1088, 1061, 1062
 6574, 3381,  269, 1776,  270
 6575, 3381,  970, 4027,  969
 6576, 1190, 1766, 1825, 3378
 6577, 3780, 3733, 3768, 1478
 6578, 3381, 1776,  269, 1766
 6579, 3378, 1766,  195,  194
 6580, 3729, 3181, 3180, 4049
 6581, 3381,  194,  969, 1776
 6582,  260, 1182,  261, 1817
 6583, 4183,  208, 1009,  207
 6584, 4183, 1009,  982,  207
 6585, 3710, 3711, 1867, 1823
 6586, 3710, 3361, 3377, 3711
 6587, 1817, 1182,  261, 1183
 6588, 3710, 1867, 3845, 1817
 6589, 3507, 1010,  983,  984
 6590, 3710, 3686, 1817, 3845
 6591, 3184, 3188, 3183, 3897
 6592, 3710, 3377, 1183, 3902
 6593, 3488, 3206, 3208, 3845
 6594, 3473, 4094, 3248, 3247
 6595,  984, 3510, 3891,  985
 6596, 3299, 3300, 3209, 3305
 6597, 3738, 1010, 1037,  173
 6598, 3684, 3346, 3488, 3248
 6599, 4172, 3572, 3174, 3304
 6600, 3131, 3518, 3576, 3517
 6601, 3717, 1889, 1850, 1891
 6602, 3478, 1038, 1011, 1012
 6603, 3172, 1161, 4136, 3173
 6604, 3304, 3174, 3172, 3173
 6605, 3172, 4136, 1155, 3865
 6606, 4126,  945, 4049,  948
 6607, 3153, 3162, 3161, 3932
 6608, 3817, 1041, 1040, 1014
 6609, 3157, 3172, 1157, 3386
 6610, 3527, 1040, 1039, 1013
 6611, 3044, 3580, 3581, 4050
 6612, 3366, 3150, 2049, 2076
 6613, 3317, 3212, 3149, 3145
 6614, 3661, 4050, 3044, 3254
 6615, 2924, 3257, 3316, 3256
 6616, 1041, 3976, 3817, 3525
 6617, 3856, 3443, 3405, 3143
 6618, 3315, 3319, 3751, 3662
 6619, 3822, 1631, 3823, 3821
 6620, 3976, 1015, 1042, 1041
 6621, 3932, 4116, 3822, 3754
 6622, 3832, 1246, 3815, 3828
 6623, 1316, 1101, 1128, 1127
 6624, 3353, 1124, 1098, 1125
 6625, 3237,  990, 3238,  963
 6626, 3828,  991, 1017,  990
 6627, 3465, 3823, 3824, 3821
 6628, 3376, 1043, 1069, 1042
 6629, 3815,  992, 1018,  991
 6630, 1268, 1074, 1073, 1047
 6631, 3822, 3755, 4182, 3301
 6632, 3269, 1043, 1016, 1017
 6633, 3596, 4006, 3822, 4182
 6634, 3452, 3449,  919, 3762
 6635,  990,  991, 3809, 3033
 6636, 3592, 3458, 3459, 3657
 6637, 3027, 1044, 1017, 1018
 6638, 3586, 1969, 1995, 1968
 6639, 3905, 3443, 1122, 1095
 6640, 3462, 3899, 3843, 3956
 6641, 3591, 3592, 3458, 3327
 6642, 3458, 3658, 3656, 4158
 6643, 3667, 1099, 1073, 1100
 6644, 3815, 1018,  992, 1019
 6645, 3591, 3327, 3458, 3656
 6646, 3842, 3956, 3843, 4158
 6647, 3591, 3658, 3657, 3288
 6648, 1220, 1019,  993, 1020
 6649, 4033, 3956, 3899, 1187
 6650, 4081,  996, 1022,  995
 6651, 3843, 3842, 4158, 4179
 6652, 3077, 1270, 1246, 1247
 6653, 4033, 1211, 3872, 4158
 6654, 4033, 3869, 3844, 4179
 6655, 1242, 1047, 1021, 1048
 6656, 3957, 3462, 3843, 3885
 6657, 4033, 3843, 3844, 3958
 6658, 4184, 1023, 1049, 1022
 6659, 4185, 1023,  996,  997
 6660, 3841, 3844, 3843, 3885
 6661, 3818, 3834, 3359, 3245
 6662, 3289, 3284, 3285, 3502
 6663, 3015, 3919, 3013, 3010
 6664, 3818, 3834, 3835, 4151
 6665,  998, 4157, 3382, 4080
 6666, 4083, 1051, 1024, 1025
 6667, 3270, 3976, 3525, 3817
 6668, 4178, 1263, 1239, 1240
 6669, 3333, 3851, 3521, 3495
 6670, 3231, 2023, 3234, 3235
 6671, 3231, 3333, 2949, 3045
 6672, 4186, 1026, 1052, 1025
 6673, 4164, 1026, 1000, 1027
 6674, 4157, 4079, 4077, 1237
 6675, 3682, 3686, 3685, 3900
 6676, 3592, 3831, 4082, 3653
 6677, 3873, 1213, 1212, 1189
 6678, 4187, 1284, 1283, 1260
 6679, 4078, 1028, 1027, 1001
 6680, 3372, 3394, 3831, 4041
 6681, 3456, 3686, 3900, 3901
 6682, 3852, 1333,  304, 1332
 6683, 3301, 1113, 1140, 1139
 6684, 3543, 3530, 3529, 1142
 6685, 3455, 3339, 3456, 3460
 6686, 4186, 1052, 1026, 1053
 6687, 3845, 3684, 3710, 3686
 6688, 3372, 3830, 3592, 4123
 6689, 3374, 3456, 3373, 3460
 6690, 3684, 3902, 3456, 3371
 6691, 3499, 4028, 3500, 4032
 6692, 3499, 4030, 3880, 3501
 6693,  405, 3115, 3769, 3065
 6694, 3115, 3065,  405, 4142
 6695, 3445, 3583, 3759, 3761
 6696, 3287, 1057, 1083, 1056
 6697, 3757, 4142, 3761, 3920
 6698, 3625, 1006, 1032, 1005
 6699, 3108, 3112, 3109, 3110
 6700, 3900, 1835, 1837, 1775
 6701, 3108, 3627, 3115, 3065
 6702, 3459, 1031, 1030, 1004
 6703, 3111, 3110, 3114, 3920
 6704, 3111, 3113, 3770, 3756
 6705, 3111, 3115, 3757, 3920
 6706, 3203, 3360, 1009, 4183
 6707, 3647, 1152, 1158, 1153
 6708, 3952, 1033, 1007, 1034
 6709, 3597, 1084, 1110, 1083
 6710, 3248, 1207, 1231, 1230
 6711, 3500, 4032, 1842, 1797
 6712, 3500,  957, 3508,  956
 6713, 3846, 1007,  980,  981
 6714, 3625, 1032, 1006, 1033
 6715, 3901, 1809, 1185, 1184
 6716, 3508, 3500, 3953,  957
 6717, 3877, 3876,  171,  983
 6718, 4028, 1848, 3504, 1842
 6719, 3360, 1009, 1035, 1008
 6720, 4028, 4032, 3499, 1881
 6721, 4028, 1842, 4032, 1881
 6722, 3506, 3502, 3501, 3497
 6723, 4188,  208, 1036, 1009
 6724, 1171, 3243, 3244, 3848
 6725, 3047, 1467, 1491, 1466
 6726, 3500, 3953, 1796, 3504
 6727, 3500, 3508, 3953, 3504
 6728, 3500, 1842, 3504, 1796
 6729, 4188, 1036,  208,  209
 6730, 3545, 3536, 1089, 1088
 6731, 1155, 3172, 1156, 1161
 6732, 3500,  983, 3508, 3876
 6733, 3515, 3513, 3514, 3838
 6734, 3160, 1646, 1664, 1638
 6735, 4118, 1671, 1644, 1594
 6736, 4136, 1089, 1063, 1090
 6737, 3222, 3980, 1274, 1298
 6738, 3086, 1460, 3095, 3091
 6739, 3199, 3942, 3201, 3295
 6740, 3538, 3707, 3708, 3717
 6741, 3527, 1013, 1039, 1012
 6742, 3095, 1459, 3089, 3091
 6743, 3681, 1730, 1726, 1727
 6744, 3729, 3894, 4049, 4126
 6745, 3480, 3478, 1011, 3891
 6746, 3729, 3730, 3731, 4126
 6747, 4128, 3447, 3761, 3578
 6748, 3890, 1850, 3717, 3708
 6749, 3184, 3182, 3897, 3183
 6750, 3758, 3180, 3179, 3943
 6751, 3619, 3574, 2997, 3642
 6752, 3054, 3896, 3259, 3052
 6753, 3897, 3051, 3918, 4132
 6754, 3817, 1040, 1013, 1014
 6755, 3401, 3436, 3438, 3441
 6756, 3927, 2055, 2054, 2028
 6757, 3258, 3618, 4133, 3641
 6758, 3598, 2999, 2998, 3622
 6759, 2998, 2999, 3000, 3622
 6760, 3261, 3642, 3000, 2998
 6761, 3550, 2999, 3598, 3622
 6762, 3497, 4028, 3504, 3500
 6763, 3502, 3880, 3284, 3501
 6764, 3507, 3876, 3509, 3497
 6765, 3498, 3260, 3878, 3879
 6766, 3741, 3260, 3290, 3880
 6767, 3269, 1043, 1042, 1016
 6768, 3127, 3522, 3706, 1412
 6769, 3093, 3092, 3317, 2989
 6770, 3257, 3128, 3882, 3874
 6771, 3128, 2973, 3883, 3266
 6772, 3141, 1693, 1691, 1658
 6773, 3088, 3087, 3091, 3522
 6774, 3376, 1071, 1070, 1044
 6775, 3589, 3528, 1246, 3832
 6776, 3832, 1019, 1045, 1018
 6777, 3079, 3679, 3075, 3342
 6778, 3225, 3094, 3066, 3102
 6779, 3177, 3277, 3587, 3588
 6780, 1244, 1046, 1019, 1020
 6781, 1291, 1290, 1074, 1267
 6782, 1290, 1267, 1266, 1074
 6783, 2930, 2978, 3029, 3074
 6784, 1241, 1022, 1218, 1217
 6785, 3167, 3165, 3610, 2031
 6786, 2921, 3170, 3169, 3019
 6787, 3771, 3166, 2958, 3169
 6788, 4184, 4178, 4185, 1240
 6789, 1266, 1048, 1075, 1074
 6790, 2962, 3274, 2963, 2968
 6791, 1291, 1268, 1267, 1074
 6792, 3166, 3765, 3169, 3771
 6793, 4080, 4178, 4185, 1024
 6794, 4184, 1049, 1023, 1050
 6795, 3169, 3924, 3772, 3765
 6796, 2975, 2976, 2908, 3341
 6797, 3474, 3372, 3209, 3471
 6798, 3172, 4136, 3296, 3173
 6799, 1314, 1103, 1102, 1290
 6800, 1266, 1049, 1076, 1075
 6801, 4189, 4190, 1077, 1078
 6802, 4184, 1264, 4178, 1240
 6803, 3172, 3296, 4136, 3865
 6804, 4003, 3545, 4136, 3865
 6805, 3474, 3187, 4041, 4112
 6806, 3471, 3831, 3646, 3475
 6807, 4178, 1050, 1023, 1024
 6808, 4191, 1076, 1049, 1050
 6809, 3156, 4004, 4005, 3535
 6810, 3334, 1051, 1052, 1078
 6811, 3162, 3648, 3250, 4114
 6812, 4005, 4114, 4082, 4007
 6813, 3573, 3186, 3250, 3251
 6814, 1311, 1310, 4134, 4192
 6815, 3304, 4172, 3572, 3157
 6816, 4083, 1051, 1025, 1052
 6817, 3242, 3299, 3296, 3304
 6818, 4160, 1055, 1081, 1054
 6819, 3161, 3160, 3932, 3544
 6820, 3456, 3957, 3462, 3899
 6821, 3393, 3745, 3854, 3440
 6822, 3334, 1052, 1079, 1078
 6823, 3898, 1208, 1185, 1209
 6824, 4189, 4178, 1264, 1263
 6825, 4193, 1284, 1260, 1261
 6826, 3055, 3814, 3813, 3264
 6827, 4169, 1031, 1057, 1030
 6828, 3014, 3239, 3013, 4019
 6829, 3332, 3435, 3533, 3403
 6830, 3331, 3322, 3428, 3042
 6831, 4194, 1054, 1028, 1055
 6832,  265, 3958, 1186, 1187
 6833, 4161, 1106, 1080, 1107
 6834, 4169, 1031, 1058, 1057
 6835, 3200, 3520, 3428, 3198
 6836, 3428, 3520, 3493, 3946
 6837, 3057, 3332, 3322, 3143
 6838, 4015, 1033, 1059, 1032
 6839, 3227, 3689, 3940, 3089
 6840, 1700, 3906, 3142, 3910
 6841, 3403, 3493, 3397, 3908
 6842, 3390, 2983, 3112, 3391
 6843, 3520, 4051, 3496, 3345
 6844, 3946, 3746, 3345, 3433
 6845, 1823,  260, 1181,  259
 6846, 3190, 3197, 3195, 3191
 6847, 3533, 3434, 3435, 4042
 6848, 3937, 1938,  422, 1370
 6849, 3597, 1110, 1084, 1111
 6850, 3937,  422, 1937,  423
 6851, 3937, 1938, 1371, 1937
 6852, 4015, 1059, 1033, 1060
 6853, 4040, 1060, 1034, 1061
 6854, 3536, 1060, 1061, 1087
 6855, 4116, 3649, 3931, 1303
 6856, 3937, 1371, 3938, 1937
 6857, 3937,  332, 1371, 1370
 6858, 3937,  422,  333,  332
 6859, 3545, 1116, 3865, 3155
 6860, 3862, 4018, 4085, 3865
 6861, 4018, 3385, 1151, 3865
 6862, 4173,  209, 1063, 1036
 6863, 4018, 1150,  213,  212
 6864, 4018,  212, 4085, 1150
 6865, 4115, 3647, 4088, 3935
 6866, 3297, 1063, 1062, 1036
 6867, 3159, 4115, 3968, 3387
 6868, 1149, 1599,  245, 1324
 6869, 4115, 4038, 3968, 1599
 6870, 4115, 4038, 3159, 3968
 6871, 1324, 4115, 1149, 1599
 6872, 1325, 4115, 4038, 4088
 6873, 4115, 1324, 4088, 1325
 6874, 3853, 1038, 1064, 1037
 6875, 3440, 3393, 3392, 3854
 6876, 3439, 1039, 1065, 1038
 6877, 3770,  176,  175, 1091
 6878, 3108, 2979, 1642, 3109
 6879, 3744, 3854, 1092, 3745
 6880, 3854, 1092, 1091, 1065
 6881, 3293, 3194, 3743, 3193
 6882, 3512, 3538, 3519, 3513
 6883, 3438, 1040, 1066, 1039
 6884, 3285, 3502, 3284, 3501
 6885, 3480, 3509, 3478, 3891
 6886, 3480, 3950, 3891, 1011
 6887, 3740, 3943, 3179, 3965
 6888, 3436, 1066, 1067, 1093
 6889, 3739, 1037, 3480, 3853
 6890, 3438, 1066, 1040, 1067
 6891, 3540, 3813, 1710, 1702
 6892, 4195, 2003, 3949, 3039
 6893, 4195, 3949, 2003,   94
 6894, 4195, 3949,  705, 3039
 6895, 2030, 3752, 3712, 3688
 6896, 4195,   94, 2003,   93
 6897, 1976, 3639, 3949, 3040
 6898, 3949, 4196, 1976,   95
 6899, 3949,   95, 1976,   94
 6900, 4195, 3752, 3039,  705
 6901, 4195,   93, 3712,  706
 6902, 4195, 3949,   94,  705
 6903, 3376, 1043, 1070, 1069
 6904, 3621, 1069, 1068, 1042
 6905, 4196,   96, 4197, 1949
 6906, 4196, 3948, 4197,  703
 6907, 3949, 3639,  704, 3039
 6908, 3040, 3639, 3949, 3039
 6909, 4196, 1949,   95,   96
 6910, 4189, 4191, 4184, 1050
 6911, 3667, 1072, 3026, 1073
 6912, 3352, 1097, 1123, 1096
 6913, 4196, 1976,   95, 1949
 6914, 3665, 1045, 1071, 1044
 6915, 4196, 3948, 3639, 1949
 6916, 3026, 1046, 1072, 1045
 6917, 4198, 1076, 1077, 1103
 6918, 4081, 1241, 1240, 1217
 6919, 4191, 1076, 1289, 1265
 6920, 3026, 1269, 1292, 1268
 6921, 3353, 1098, 1124, 1097
 6922, 4155, 3170, 3169, 1636
 6923, 4017, 3773, 3776, 3671
 6924, 1266, 1075, 1048, 1049
 6925, 3773, 4155, 1603, 3671
 6926, 1266, 1074, 1047, 1048
 6927, 3773, 4155, 1670, 1603
 6928, 1268, 1047, 1073, 1046
 6929, 3773, 3777, 1601, 1670
 6930, 3924, 3170, 3671, 3672
 6931, 4017, 3989, 3772, 3924
 6932, 4155, 1634, 4092, 1670
 6933, 4155, 1634, 3772, 4092
 6934, 4155, 3170, 1636, 1668
 6935, 4155, 1603, 3671, 1668
 6936, 3851, 3495, 2025, 3521
 6937, 4047, 3861, 4051, 2079
 6938, 1266, 1048, 1242, 1049
 6939, 1290, 1075, 1076, 1102
 6940, 3832, 3027, 1018, 1045
 6941, 3861, 2080, 4051, 2079
 6942, 3496, 4051, 3520, 3861
 6943, 3945, 3954, 3766, 4037
 6944, 3996, 1427, 3995, 3794
 6945, 4198, 1077, 1104, 1103
 6946, 3089, 3940, 1459, 1458
 6947, 4184, 1241, 1264, 1240
 6948, 4191, 1076, 1050, 1077
 6949, 3335, 1079, 1053, 1080
 6950, 2966, 3465, 3824, 3821
 6951, 1404, 3793, 3794, 3996
 6952, 1314, 1103, 1313, 1130
 6953, 3996, 3991, 3995, 1427
 6954, 3693, 3954, 4146, 3801
 6955, 3335, 1081, 1080, 1054
 6956, 4190, 1104, 1078, 1105
 6957, 3996, 1429, 3798, 4105
 6958, 3996, 3997, 1429, 4105
 6959, 4192, 1105, 1079, 1106
 6960, 4199, 1309, 1308, 1285
 6961, 4162, 1082, 1109, 1108
 6962, 3873, 4077, 4200, 1212
 6963, 3378, 1825, 3380, 1763
 6964, 3820, 1083, 1110, 1109
 6965, 4076, 1236, 4079, 1260
 6966, 4064,  297,  230,  298
 6967, 4064, 1339,  297,  298
 6968, 4064,  229,  298,  230
 6969, 4064, 1128, 1339, 1338
 6970, 4113, 1059, 1085, 1058
 6971, 3862, 1116, 3865, 4085
 6972, 3652, 1058, 1084, 1057
 6973, 4064, 1129, 1338,  229
 6974, 3327, 1234, 1258, 1257
 6975, 4064, 1338, 1129, 1128
 6976, 4201, 3117,  231, 1533
 6977, 4201, 3117, 1533, 1530
 6978, 3377, 1205, 1181, 1182
 6979, 4014, 1060, 1086, 1059
 6980, 4201, 3117, 1341, 1127
 6981, 4123, 3625, 3626, 1032
 6982, 4007, 1280, 1304, 1303
 6983, 4201, 1533,  231,  296
 6984, 4201, 1533,  296,  295
 6985, 4006, 1112, 1085, 1086
 6986, 4182, 1085, 1111, 1084
 6987, 4157, 3382, 1214, 3379
 6988, 3380,  971, 3871, 3379
 6989, 3649, 1608, 1326, 1327
 6990, 1190, 3382, 3378, 3379
 6991, 3379,  971, 3871, 3382
 6992, 3868, 3379, 1189, 1825
 6993, 3386, 1151, 1156, 1157
 6994, 4136, 3173, 1161, 3243
 6995, 3187, 1254, 3249, 1255
 6996, 3963, 3938, 1936,  424
 6997, 3536, 1087, 1061, 1088
 6998, 3534, 1115, 1114, 1088
 6999, 3347, 3249, 3248, 1231
 7000, 3952, 1034, 4040, 1033
 7001, 3938, 1936,  424,  423
 7002, 3963, 3938, 1372, 1936
 7003, 3938, 1937, 1936,  423
 7004, 4136,  211, 1090,  210
 7005, 3938, 1937, 1371, 1372
 7006, 4136,  210, 1160,  211
 7007, 3937,  333, 3938, 1371
 7008, 4127, 3052, 3053, 4133
 7009, 4111, 3053, 3618, 4127
 7010, 3862, 1144, 1143, 1117
 7011, 1716,  402, 4099, 4127
 7012, 4127, 1921,  403,  402
 7013, 4127, 1872, 4099, 4133
 7014, 3464, 3824, 1330, 1606
 7015, 3317, 3319, 3860, 3145
 7016, 3770, 1064, 1091,  175
 7017, 4142,  405, 1621,   25
 7018, 3464, 1610, 3466, 1627
 7019, 3969, 4101, 1579, 1120
 7020, 2932, 3709, 3016, 4019
 7021, 3910, 1689, 1700, 1697
 7022, 3745, 1092, 1093, 1119
 7023, 3744, 1093, 1092, 1066
 7024,  305, 1331, 1606, 1610
 7025, 2959, 4066, 2084,   91
 7026, 3175, 2959, 3664, 4066
 7027, 2959,  708,   91,    5
 7028, 3142, 1691, 1702, 1700
 7029, 3816, 1041, 1067, 1040
 7030,   64,  701, 1645,   63
 7031, 3404, 4101, 1653, 1650
 7032, 3624, 1248, 3246, 1249
 7033, 2959,  701, 3664,  708
 7034, 2959,  372,   63,    5
 7035, 4152,  965, 4150, 1197
 7036, 3443, 1096, 1123, 1122
 7037, 3436, 1094, 1068, 1095
 7038, 4024,  187, 1744,  188
 7039, 4024,  188, 4152,  964
 7040, 4152, 4150,  965,  189
 7041, 4152, 4150,  189, 1739
 7042, 3524, 1071, 1097, 1070
 7043, 3539, 1096, 1095, 1069
 7044, 4152, 1737, 4150, 1739
 7045, 3186, 3187, 1254, 3247
 7046, 3230, 3186, 1253, 3247
 7047, 3620, 1097, 1096, 1070
 7048, 1292, 1100, 1073, 1074
 7049, 3548, 1247, 1246, 1223
 7050, 3299, 3154, 3296, 3304
 7051, 3524, 1097, 1071, 1098
 7052, 3563, 1251, 3603, 3602
 7053, 3472, 3250, 3186, 3187
 7054, 1290, 1075, 1101, 1074
 7055, 1293, 3589, 1294, 1270
 7056, 3077, 1271, 1270, 1247
 7057, 3186, 1277, 3251, 3936
 7058, 2956, 3139, 2957, 3268
 7059, 3587, 3588, 1272, 1271
 7060, 2897, 3427, 2935, 3177
 7061, 3670, 1125, 1099, 1126
 7062, 1292, 1101, 1100, 1074
 7063, 3355, 3358, 3665, 3354
 7064, 3524, 3354, 3523, 3666
 7065, 3427, 3588, 1271, 3077
 7066, 3709, 3034, 3168, 3076
 7067, 3225, 3103, 3102, 3101
 7068, 4191, 1289, 1288, 1265
 7069, 4189, 4178, 1051, 1050
 7070, 3270, 3011, 3976, 3359
 7071, 2956, 3354, 3375, 3376
 7072, 3297, 3173, 3296, 4136
 7073, 3651, 4129, 1306, 1330
 7074, 3154, 3157, 3155, 3172
 7075, 1314, 1102, 1103, 1129
 7076, 4136,  210, 4173, 1160
 7077, 3297, 3300, 3243, 3360
 7078, 1290, 1102, 1076, 1103
 7079, 4003, 3298, 1062, 4040
 7080, 4121, 4198, 1312, 4190
 7081, 3298, 1008, 1034, 3952
 7082, 3300, 3298, 3297, 3242
 7083, 3952, 3211, 1006, 3626
 7084, 3466, 1331, 3468, 1332
 7085, 3467, 1627, 1553, 1557
 7086, 3952, 3626, 1033, 4015
 7087, 3209, 3211, 3952, 3626
 7088, 3471, 3952, 4015, 3626
 7089, 4045, 1741, 3410, 1827
 7090, 4199, 4135, 3468, 1308
 7091, 4083, 4079, 1238, 1262
 7092, 4045, 1827, 3410, 3411
 7093, 4045, 1741, 4202, 3410
 7094, 4044, 4045, 1743, 4202
 7095, 3670, 1100, 3667, 1317
 7096, 3820, 1109, 1082, 1083
 7097, 3326, 1282, 1281, 1258
 7098, 3670, 3353, 1098, 1125
 7099, 4162, 1108, 1081, 1082
 7100, 1342, 3670, 1341, 4203
 7101, 2903, 3067, 2936, 3068
 7102, 4134, 1132, 1106, 1133
 7103, 4192, 1106, 4134, 1105
 7104, 1556, 1134,  225, 1133
 7105, 3476, 1357, 3484, 1359
 7106, 4068, 3975, 3669, 4203
 7107, 3670, 4203, 3117, 1341
 7108, 4161, 1108, 1107, 1081
 7109, 3464, 1606, 1610, 1627
 7110, 3974, 3670, 1125, 3353
 7111, 4091, 1133, 1107, 1134
 7112, 3670, 3666, 1098, 3353
 7113, 3974, 3523, 3669, 3670
 7114, 1885, 3643, 3000, 2999
 7115, 4110, 1281, 1280, 1257
 7116, 3822, 3823, 4008, 4129
 7117, 4031, 4030, 1881, 1853
 7118, 3000, 3259, 4031, 3643
 7119, 4004, 3301, 4006, 3535
 7120, 3259, 1886, 4099, 1853
 7121, 3259, 3643, 1885, 1852
 7122, 4150,  274, 1739,  275
 7123, 4150, 4180,  276, 1737
 7124, 3338, 4008, 1304, 1305
 7125, 4152,  188, 1739,  189
 7126, 4150, 1737,  276,  275
 7127, 3809, 4180, 1198, 4152
 7128, 3831, 4082, 4041, 3394
 7129, 3240, 4024, 1744, 3809
 7130, 4152, 1739,  188, 1737
 7131, 3655,  389, 2102,  390
 7132, 3655,  364, 2101,  389
 7133, 4125, 1635, 1633, 1573
 7134, 3535, 1087, 1114, 1113
 7135, 3864, 1581, 3529, 1143
 7136, 4085, 1090,  211, 1117
 7137, 1141, 3933,  217, 1142
 7138, 4136, 1089, 1090, 3545
 7139,  390, 3655, 1531, 3858
 7140, 3154, 3172, 3155, 3296
 7141, 3385, 1152, 1146, 1151
 7142, 3655, 3857,  365, 1531
 7143, 1116, 1090, 4085, 1117
 7144, 3655, 3857, 3858, 1512
 7145, 3534, 3529, 3530, 1115
 7146,  365, 3857, 1511,  366
 7147, 3655,  364,  365, 1512
 7148, 3765, 2088, 3989, 3772
 7149, 4018,  212,  213, 1144
 7150, 3771, 3772, 2087, 2088
 7151, 3772, 3771, 3765, 2088
 7152, 3437, 3436, 1093, 1066
 7153, 3744, 3854, 1065, 1092
 7154, 1578, 2086, 3169, 2087
 7155, 3166, 3771, 3715, 3765
 7156, 2958, 3771, 2086, 2059
 7157, 3770,  174, 1064,  175
 7158, 3771, 3715, 2060, 2059
 7159, 1119, 3396, 3116, 1587
 7160, 2983, 2082, 3389, 2083
 7161, 1583, 1119, 1120,  239
 7162, 3434, 1690, 1657, 1654
 7163, 1245, 3832, 1246, 3815
 7164, 3277, 1273, 1296, 1272
 7165, 3747, 1121, 1120, 1094
 7166, 3832, 1269, 3589, 3027
 7167, 1579, 1120, 1121,  238
 7168, 3832, 3528, 1246, 3828
 7169, 3832, 1019, 3815, 1245
 7170, 1269, 1045, 3027, 3832
 7171, 1245, 1046, 1244, 1268
 7172, 1019, 1046, 1244, 1245
 7173, 3905, 1121, 1095, 1122
 7174, 1046, 1045, 1268, 3832
 7175, 1245, 1046, 1268, 3832
 7176, 4104, 3797, 1405, 3798
 7177, 3611, 3922, 3607, 3947
 7178, 1571,  235,  236, 1123
 7179, 1565,  234,  235, 1124
 7180, 3414, 3413, 3605, 3416
 7181, 3609, 3696, 3703, 4105
 7182, 3690, 3694, 3693, 3612
 7183, 3352, 1123, 1097, 1124
 7184, 3857, 3858, 1512, 3907
 7185, 1316, 1101, 1127, 1100
 7186, 3857, 1535,  367,  366
 7187, 3974,  233, 1126,  232
 7188, 3670, 1125, 1098, 1099
 7189, 3443, 1122, 1095, 1096
 7190, 3060, 3079, 3074, 3075
 7191,  367, 3857, 3867, 1535
 7192, 3857, 1539, 3858, 3365
 7193, 3655, 3858, 3857, 1531
 7194, 3857, 3365, 1535, 1539
 7195,  366, 1531,  365, 3857
 7196, 3453, 3762, 4035, 4118
 7197, 3453, 4034, 3452, 3735
 7198, 3452,  912, 3731, 4034
 7199, 3667, 3666, 1072, 1099
 7200, 1340, 1127, 1128,  231
 7201, 4121, 4198, 1313, 1312
 7202, 3454, 3731, 3452, 3734
 7203, 4120, 1105, 1132, 1131
 7204, 1129, 1314, 1338, 1130
 7205, 3452, 3734,  911,  918
 7206, 3452, 3731,  911, 3734
 7207, 3395, 1686, 3908, 3628
 7208, 3397, 3395, 3908, 3628
 7209, 4121, 1130, 1104, 1131
 7210, 3191, 3329, 3323, 3526
 7211, 3393, 3969, 3745, 3747
 7212, 4081, 1240, 4184, 4185
 7213, 4081, 1022, 4184, 1241
 7214, 4184, 1049, 4191, 1265
 7215, 4184, 4191, 1264, 1265
 7216, 4184, 1241, 1022, 1049
 7217, 4189, 4178, 4184, 1264
 7218, 3667, 1316, 1292, 1293
 7219, 1318, 3667, 3670, 3666
 7220, 3668, 3666, 3667, 1318
 7221, 3667, 1317, 1100, 1316
 7222, 4065, 1250, 3224, 1249
 7223, 1292, 3667, 3026, 1073
 7224, 3423, 1296, 1319, 1295
 7225, 3469, 1330, 1306, 1307
 7226, 3667, 3355, 1294, 3665
 7227, 3667, 3665, 3026, 1072
 7228, 3593, 4187, 4159, 3819
 7229, 3554, 1225, 3246, 3660
 7230, 3963, 1936, 3999, 1935
 7231, 4010, 1134, 1108, 1135
 7232, 4010, 1108, 1134, 1107
 7233, 3999, 1373, 4000, 1397
 7234, 4087, 1963, 3999, 1396
 7235, 3819, 1307, 1283, 1284
 7236, 4076, 4187, 1259, 1260
 7237, 3032, 1109, 1135, 1108
 7238, 4135, 3468, 1308, 1332
 7239, 3999, 4000, 1935, 1962
 7240, 1556, 4012, 4091, 1133
 7241, 3032, 4010, 1135, 1551
 7242, 4010, 3466, 3032, 3468
 7243, 1111, 3597, 1110, 1137
 7244, 3466, 1610,  304, 1613
 7245, 3032, 3469, 3820, 3468
 7246, 3032, 3468, 4162, 4010
 7247, 4177, 4204, 4023, 1480
 7248, 4177, 3425, 4204, 4205
 7249, 4177, 1481, 4204, 1480
 7250, 4177, 4147, 3699, 4205
 7251, 4206, 1131,  227,  228
 7252, 4177, 4205,  677, 4147
 7253, 4012,  303, 1333, 1334
 7254, 3755, 1112, 1138, 1111
 7255, 4177,  678, 1457,  677
 7256, 1481,  678, 1457, 4177
 7257, 3894,  942, 3574, 3600
 7258, 3032, 1110, 1136, 1109
 7259, 3894,  909, 3895, 3917
 7260, 3729, 3894, 4126, 3895
 7261, 3893, 3894, 3895, 3917
 7262, 3755, 1112, 1139, 1138
 7263, 3301, 1113, 1139, 1112
 7264, 3021, 3411, 3959, 3964
 7265, 1553,  221,  222, 1137
 7266, 3134, 3341, 3137, 3135
 7267, 2914, 2917, 2916, 2907
 7268, 3824, 4129, 3651, 1330
 7269, 2990, 2989, 3099, 3212
 7270,  220, 1138, 1561, 1139
 7271, 3863,  242,  241, 1146
 7272, 3257, 3256, 3874, 3888
 7273, 1567, 1139, 1140,  219
 7274, 1139, 3821, 1561, 1567
 7275, 3754, 1602, 1669, 1667
 7276, 3280, 3132, 3136, 3281
 7277, 3257, 3888, 3316, 3256
 7278, 3301, 1113, 1114, 1140
 7279, 3135, 3132, 3133, 1915
 7280, 3135, 4009, 3132, 1915
 7281, 4189, 4198, 1077, 4190
 7282, 3250, 3648, 3251, 1302
 7283, 4191, 1076, 4198, 1289
 7284, 3334, 4083, 3336, 1052
 7285, 4189, 4184, 4191, 1264
 7286, 4191, 1265, 1049, 1076
 7287, 3781, 1228,  250, 1204
 7288, 4184, 1050, 4191, 1049
 7289, 3862, 4018, 3865, 3385
 7290, 3864,  214, 1585,  215
 7291, 3529, 1142, 1116, 1143
 7292, 3388, 3863, 3384, 3385
 7293, 4189, 4191, 1050, 1077
 7294, 4026, 4027, 1192, 1216
 7295, 4081, 1217, 4026,  995
 7296, 2996, 4026,  968,  969
 7297, 1116, 3545, 4085, 1090
 7298, 3862, 3385, 3863, 4018
 7299, 4026,  969, 4027,  996
 7300, 4121, 1130, 4206, 1337
 7301, 3529, 1142, 1115, 1116
 7302, 1151, 4018, 1150, 1145
 7303, 4121, 1104, 4198, 4190
 7304, 1577,  216,  217, 1142
 7305, 4120, 1131, 4121, 1104
 7306, 4121, 4198, 1103, 1313
 7307, 3499, 3506, 4029, 3501
 7308, 1575, 1122,  237, 1121
 7309, 3506, 3708, 4029, 3890
 7310, 4029, 3890, 1848, 1791
 7311, 3506, 4029, 3708, 3504
 7312, 3854, 1091, 1064, 1065
 7313, 3664, 3722, 3767,  693
 7314, 3859, 3352, 4131, 1123
 7315, 4144, 3722, 3664,  694
 7316, 3019, 3175, 3664, 3164
 7317, 2922, 2959, 1645, 3664
 7318, 3722, 3767, 3171, 3664
 7319, 3723, 3722, 3767, 3171
 7320, 1571, 1123,  236, 1122
 7321, 3708, 3538, 3492, 3506
 7322, 1579,  237,  238, 1121
 7323, 3501, 4030, 3880, 1948
 7324, 4029, 4036, 3890, 1947
 7325, 4036, 3890, 1946, 3492
 7326, 3859, 4103, 1571, 1658
 7327, 3285, 3506, 4036, 3492
 7328, 3282, 4036, 3501, 1974
 7329, 1575,  236,  237, 1122
 7330, 4036, 3492, 1946, 1973
 7331, 1317, 1318, 3667, 3670
 7332, 3045, 3849, 3851, 3850
 7333, 1530, 4203,  294,  295
 7334, 4203, 1534, 1530,  294
 7335, 4201, 4203, 3117, 1530
 7336, 4044, 3410, 4202, 3412
 7337, 4202, 1367, 4046, 3412
 7338, 4202, 1368, 4046, 1367
 7339, 1565,  235, 1123, 1124
 7340, 1338, 1130,  229, 1129
 7341, 3265, 3263, 3398, 1677
 7342, 4045, 1743, 4202, 1741
 7343, 4202, 1741, 1738,  329
 7344, 4202, 1368, 4207, 4063
 7345, 4202, 4207,  329, 1738
 7346, 3265, 1677, 1703, 1704
 7347, 4121, 1131, 4206, 1130
 7348,  298,  228,  229, 1338
 7349, 3338, 4008, 1305, 4129
 7350, 3596, 3338, 4129, 4008
 7351, 3831, 4082, 4112, 4041
 7352, 1546, 1346,  291, 1345
 7353, 1132, 4119, 4122, 4120
 7354, 3653, 3338, 3326, 3321
 7355, 4064,  229,  230, 1129
 7356, 4113, 1059, 3830, 4015
 7357, 4082, 1255, 4112, 4041
 7358, 4093, 1334, 1333, 1310
 7359,  298, 1338,  299,  228
 7360, 3060, 2932, 3016, 3062
 7361, 3919, 1861, 3951, 4151
 7362, 3705, 1659, 3581, 4050
 7363, 3278, 3919, 3835, 3280
 7364, 1338, 1337,  228, 1130
 7365, 3132, 4009, 1909, 1915
 7366, 3132, 1906, 3138, 1919
 7367, 3132, 4009, 3137, 3281
 7368, 3135, 4098, 1915, 3133
 7369, 3986, 4097, 1493, 4208
 7370, 3983, 3986, 2097, 2096
 7371, 3986, 2070, 4097, 4208
 7372, 3986, 2069, 4097, 2070
 7373, 3985, 2069, 3986, 2096
 7374, 4052, 3676, 3547, 3727
 7375, 3727, 4052, 1865, 1751
 7376,  227, 4119, 1570, 1132
 7377, 3727, 3676, 3547, 3123
 7378, 3541, 3126, 3727, 3125
 7379, 3727, 3126, 1902, 1865
 7380, 4011,  224, 1134, 1135
 7381, 1902, 3727, 3541, 3126
 7382, 3778, 4156, 4209, 3988
 7383, 4168, 3971, 3608, 2034
 7384, 3852,  304, 1333,  303
 7385, 1453, 3779, 1454, 4105
 7386, 1553, 1137,  222, 1136
 7387, 1132, 4119, 1570, 4122
 7388, 3779, 3939, 1477, 3972
 7389, 3779, 3609, 3733, 1478
 7390, 3970, 3766, 3994, 3944
 7391, 3970, 3939, 3779, 3972
 7392, 1600,  307,  308, 1329
 7393, 3766, 3779, 4105, 3609
 7394, 1470, 3775, 4097, 4060
 7395, 4122,  226, 1133,  225
 7396, 4097, 3775, 1469, 4208
 7397, 1551,  223, 1135, 1136
 7398, 3985, 4097, 4096, 1494
 7399, 4001, 3100, 3367, 3368
 7400, 3274, 2968, 3825, 3422
 7401, 1556,  225, 1134,  224
 7402, 3356, 3265, 3398, 3407
 7403, 1557, 1138,  221, 1137
 7404, 3265, 1677, 3398, 3407
 7405, 3356, 3408, 3265, 3407
 7406, 3265, 1704, 3263, 1677
 7407, 3265, 1703, 3408, 3883
 7408, 3343, 3700, 3036, 3679
 7409, 1282, 3338, 1281, 1305
 7410, 3679, 3342, 1918, 1920
 7411, 3700, 1913, 3678, 1903
 7412, 3679, 3342, 1920, 3075
 7413, 1445, 1446, 4057, 3775
 7414, 4097, 4208, 2070, 2043
 7415, 4057, 3775, 2015, 2016
 7416, 4097, 2042, 3775, 2043
 7417, 3775, 4208, 2043, 4210
 7418, 3481, 1361, 1360, 1358
 7419, 3152, 3787, 1510, 3867
 7420, 3335, 1053, 1079, 1052
 7421, 3907, 3152, 1487, 1512
 7422, 3150, 3152, 1487, 3907
 7423, 1512, 3152, 3857, 3907
 7424, 1606,  305,  306, 1331
 7425, 3999, 1936, 1963, 1962
 7426, 3530, 1114, 1115, 1141
 7427, 4199, 4093, 3337, 4161
 7428, 3301, 1140, 1114, 1141
 7429, 4087, 4000, 3855, 1397
 7430, 1561, 1138, 1557, 3821
 7431, 4087, 3999, 1962, 4000
 7432, 3999, 1397, 1372, 1373
 7433, 4000, 3962, 1934, 1961
 7434, 4087, 4000, 1962, 3855
 7435, 3113, 3756, 3758, 3943
 7436, 3438, 3478, 3439, 3191
 7437, 1567,  219, 1140,  218
 7438, 3942, 3494, 3199, 3941
 7439, 3817, 3527, 3816, 3329
 7440, 1573,  218, 1141,  217
 7441, 4018, 1145, 3866,  213
 7442, 1581,  216, 1143,  215
 7443, 4192, 1079, 4161, 1106
 7444, 4211, 3571, 3564, 1349
 7445, 3866,  213, 1145,   18
 7446, 4211, 3571, 4149, 3564
 7447, 4211, 4149, 1828, 1748
 7448, 4211, 4149, 1747, 1828
 7449, 4211, 3564,  282, 1348
 7450, 4211, 1203, 3564, 4149
 7451, 4211, 1348,   21,  313
 7452, 1563, 3791,  391, 1539
 7453, 3791,  391, 1539, 3858
 7454, 3864,  215, 1144,  214
 7455, 3858, 3907, 3966, 2103
 7456, 3858, 3791, 3966, 3365
 7457, 3655, 2102, 3858,  390
 7458, 3858, 1539,  390,  391
 7459, 3570, 3571, 1753, 4052
 7460, 3570, 3567, 3571, 4052
 7461, 3570, 3676, 1856, 1899
 7462, 3570, 4149, 1857, 1887
 7463, 4193, 1261, 3336, 1285
 7464, 3573, 3159, 3934, 3648
 7465, 3250, 1302, 3251, 1278
 7466, 3155, 3172, 3865, 3296
 7467, 3162, 3646, 3831, 3475
 7468, 3475, 4112, 3250, 3187
 7469, 4160, 3335, 1054, 1081
 7470, 3871,  998, 4157, 3382
 7471, 4080, 4185,  997, 1024
 7472, 3866,   18,  241,  214
 7473, 4186, 4157, 1025, 4083
 7474,  998, 1025, 4164, 4157
 7475, 4018, 3865, 1150, 4085
 7476, 4192, 4093, 4134, 1106
 7477, 4120, 1105, 4134, 1132
 7478, 3864,  215, 1143, 1144
 7479, 3862, 4018, 1144, 1117
 7480, 4012, 4093, 4091, 4134
 7481, 4093, 4134, 1106, 4091
 7482, 3753, 1908, 4098, 3964
 7483, 4018, 1144, 1117,  212
 7484, 3753, 3342, 1912, 1918
 7485, 3862, 1117, 1143, 1116
 7486, 3700, 3959, 1913, 1907
 7487, 3863,  241, 1145, 1146
 7488, 3740, 3290, 3741, 3749
 7489, 3530, 1115, 1142, 1141
 7490, 3943,  175, 3756, 3180
 7491, 3866,  214,  241, 1585
 7492, 3741, 3965, 3879, 3738
 7493, 3179, 3183, 3965, 3181
 7494, 3183, 3599, 3965, 3181
 7495, 3943,  174, 3181,  173
 7496, 1581,  216, 1142, 1143
 7497, 1148, 1598, 1599, 3968
 7498, 2996, 4026, 1192, 1193
 7499, 3298, 1061, 1035, 1062
 7500, 3864, 1144, 3866,  214
 7501, 3545, 1088, 1089, 1115
 7502, 4115, 3935, 4086, 1154
 7503, 3388, 1146, 1147,  242
 7504, 4081, 4185, 1216, 1240
 7505, 4081, 4185, 4184, 1023
 7506, 4081, 4185, 1023,  996
 7507, 3585, 3024, 1942, 4062
 7508, 3325, 3232, 3213, 3324
 7509, 3585, 3584, 1969, 3024
 7510, 3025, 3584, 3585, 3024
 7511, 3388,  243, 1147, 1598
 7512, 1148, 1598, 1147,  243
 7513, 3985, 2068, 4096, 2069
 7514, 3985, 3912, 4212, 2068
 7515, 4213, 2068, 4096, 4212
 7516, 4213, 4096, 2041, 4059
 7517, 4096, 4214, 1471, 4215
 7518, 3335, 4186, 1054, 1053
 7519, 3985, 4096, 4212, 1494
 7520, 4213, 4096, 4059, 4215
 7521, 3387, 1147, 1152, 1153
 7522, 4060, 4096, 4059, 2041
 7523, 1148,  243,  244, 1598
 7524, 4059, 4216, 4056, 2014
 7525, 1447, 1446, 4059, 4056
 7526, 1599,  312, 1324, 1325
 7527, 3155, 1116, 3534, 3545
 7528, 3672, 3972, 3671, 3924
 7529, 4088, 1325, 1324, 1301
 7530, 3865, 3545, 4085, 1116
 7531, 4115, 1300, 1149, 1154
 7532, 3534, 3536, 3545, 1088
 7533, 3865, 3385, 1151, 3386
 7534, 3159, 3647, 4115, 3387
 7535, 3529, 3155, 1116, 3534
 7536, 3155, 3172, 3386, 3865
 7537, 4003, 1062, 3297, 4136
 7538, 1481,   89,   88,  679
 7539, 1090, 3865, 4085, 1155
 7540, 3784, 1523, 1499, 1524
 7541, 3156, 3155, 3545, 4003
 7542, 3120, 3036, 3123, 3678
 7543, 1324,   19,  245,  246
 7544, 3840, 1363, 3567, 4052
 7545, 3727, 1365, 3125, 1364
 7546,  246, 1324, 1300, 1149
 7547, 3727, 4052, 1751, 1364
 7548, 3840, 3706, 1388, 3125
 7549,  247, 4086, 1154, 1300
 7550, 3025, 3020, 2953, 3344
 7551, 3545, 3865, 4085, 1090
 7552, 3584, 3024, 3553, 1970
 7553, 4018, 1150, 1145,  213
 7554, 1161, 4136, 1155, 3172
 7555, 4136, 1090, 1063,  210
 7556, 3586, 3235, 1995, 1996
 7557, 3968, 1147, 3387, 1148
 7558, 3385, 1146, 1145, 1151
 7559, 3586, 3324, 3328, 1995
 7560, 3865, 1150, 1156, 1151
 7561, 3386, 1157, 1152, 1151
 7562, 3586, 1969, 3584, 1996
 7563, 4136, 1089, 1062, 1063
 7564, 3862, 3385, 3155, 3864
 7565, 1163, 1168, 3174, 3230
 7566, 3782, 3909, 1205, 1204
 7567, 3230, 1228, 3782, 1229
 7568, 4136, 3243, 3297, 3173
 7569, 3968, 1148, 1598, 1147
 7570, 1173, 3303, 1168, 3782
 7571, 3782, 1174, 3909, 1204
 7572, 1786,  204,  979,  203
 7573, 3242, 3300, 3243, 3297
 7574,  248, 4086, 1159, 1154
 7575, 3297, 4173, 4136, 1063
 7576, 1300, 4086, 1154, 4115
 7577, 2932, 3168, 3118, 3076
 7578, 4117, 1173, 1167, 1172
 7579, 3168, 1200, 3080, 3663
 7580, 2932, 3062, 3080, 4019
 7581, 3638,  695, 3654,  702
 7582, 3168, 3076, 3034, 1223
 7583, 3014, 3709, 4019, 3016
 7584, 1363, 3567, 3571, 1362
 7585, 4015, 4014, 1059, 1060
 7586, 4136, 1160, 1161, 1155
 7587, 3203, 1008,  981,  982
 7588, 3172, 1157, 1156, 1162
 7589, 3297, 1063, 4136, 1062
 7590, 1362, 1363, 1753, 3571
 7591, 3571,  324, 1753, 1362
 7592, 3647, 1158, 1152, 1157
 7593, 3571, 1753,  324, 1755
 7594, 3546, 3570, 3569, 3623
 7595, 4136, 1155, 1090,  211
 7596, 3571, 1747, 4149, 1887
 7597, 3173, 1167, 1162, 1161
 7598, 1794,  206,  981,  205
 7599, 3324, 2021, 3253, 2926
 7600, 1167, 3303, 1168, 1173
 7601, 3646, 4014, 3156, 3831
 7602, 3071, 3070, 3325, 3097
 7603, 4188, 1170, 3243, 1165
 7604, 3172, 1162, 1156, 1161
 7605, 3301, 3530, 1141, 1114
 7606, 3586, 1996, 3584, 3235
 7607, 3325, 3232, 3098, 3213
 7608, 3173, 1167, 1161, 1166
 7609, 3174, 1162, 1167, 1168
 7610, 3935, 1159, 1153, 1158
 7611, 3234, 3324, 2022, 3253
 7612, 3324, 2926, 3328, 1994
 7613, 4021, 1385, 4217, 1409
 7614, 4021, 4217, 4154, 1409
 7615, 4217, 4021, 4070, 1385
 7616, 4172, 1162, 1163, 1157
 7617, 3155, 4003, 3296, 3865
 7618, 3339, 1005,  978,  979
 7619, 4020, 4021, 4070, 3726
 7620, 1826,  254,  253, 1178
 7621, 4070, 1385,  681, 4217
 7622, 1089, 4003, 1062, 3536
 7623, 3172, 1161, 3173, 1162
 7624, 4021, 4217, 3810, 4154
 7625, 4070, 4021, 4217, 3810
 7626, 3534, 3535, 1087, 1114
 7627, 4094, 1206, 1229, 1205
 7628, 3390, 3496, 3520, 3494
 7629, 1180,  258,  252, 1179
 7630, 3230, 1252, 1228, 1229
 7631, 3403, 3435, 3908, 3910
 7632, 3249, 3187, 4041, 3474
 7633, 3908, 1687, 3910, 1697
 7634, 3908, 1651, 3628, 1686
 7635, 3908, 3433, 1651, 1688
 7636, 3953, 3508,  957,  958
 7637, 3953, 3504, 1849, 1796
 7638, 3953,  958, 3713, 3514
 7639, 3953, 3511, 1851, 1849
 7640, 3953, 3713, 1851, 3511
 7641, 3503, 3713, 3953, 3511
 7642, 3187, 3249, 4041, 1255
 7643, 3417, 3632, 3611, 3416
 7644, 1183, 3248, 1207, 3902
 7645, 3682, 3456, 3900, 3339
 7646, 4188, 3360, 1036, 3243
 7647, 3684, 3371, 3347, 3902
 7648, 3922, 3608, 2007, 3945
 7649, 3922, 2006, 3608, 3607
 7650, 3544, 1667, 1635, 1638
 7651, 4183,  982, 4165,  207
 7652, 3901, 1809, 1811, 1871
 7653, 3936, 1164, 1158, 1163
 7654, 3952, 1008, 1034, 1007
 7655, 3458, 3459, 3657, 3461
 7656, 3922, 3694, 1979, 3947
 7657, 3179, 3943, 3181, 3965
 7658, 3879, 3965,  173, 3738
 7659, 3172, 3174, 4172, 1162
 7660, 1252, 1164, 1228,  249
 7661, 1252, 1164,  249, 1159
 7662, 3184, 3188, 3680, 3189
 7663, 3261, 3879, 3260, 3749
 7664, 3897, 4048, 3188, 3262
 7665, 1177, 3903, 4117, 3362
 7666, 1775,  201,  202,  977
 7667, 4034,  912, 3731,  905
 7668, 1228, 3782, 1169, 3230
 7669, 4035, 4034,  953,  950
 7670, 1165, 1166, 3243, 1160
 7671,  953, 4035,  906, 1593
 7672, 3153, 3154, 3162, 3573
 7673, 3230, 1229, 4094, 3247
 7674, 4188, 3360, 1009, 1036
 7675, 4035,  913, 4118, 3762
 7676, 3856, 3142, 3405, 1689
 7677, 3736, 3453, 3579, 3577
 7678, 4188, 1170, 1165,  209
 7679, 3230, 1252, 1164, 1228
 7680, 4165, 1794,  206,  982
 7681,  954, 4035, 1593, 3760
 7682,  906, 1593,  150,  953
 7683, 3848, 1176, 1170, 1175
 7684, 3453,  954, 4034, 3735
 7685,  912, 4035, 4034, 3452
 7686, 4188, 1009, 4183,  208
 7687, 4035,  913,  151, 4118
 7688, 3912, 2094, 2067, 2068
 7689, 4034,  951, 3735,  954
 7690, 1093, 3745, 1119, 3747
 7691, 4034,  951, 3731, 3735
 7692, 4127, 3053, 1717, 1718
 7693, 4111, 1721, 3053, 1718
 7694, 3081, 3323, 3429, 3441
 7695, 1804, 3618, 4133, 4127
 7696, 3306, 3512, 3538, 3519
 7697, 3244, 1172, 1167, 1166
 7698, 3618, 3641, 1805, 4133
 7699, 4111, 1721, 4132, 3053
 7700, 3903, 1177, 1171, 1176
 7701, 3051, 3053, 3618, 3918
 7702, 3903, 1177, 1172, 1171
 7703, 3686, 1869, 1811, 1817
 7704, 3898, 3902, 1184, 1208
 7705, 3618, 3053, 3051, 4133
 7706,  929, 4111, 1721, 4132
 7707, 3848, 3243, 1170, 1171
 7708, 4111, 3053, 4132, 3918
 7709, 4127, 1717, 3053, 3052
 7710, 3053, 3051, 4133, 3052
 7711, 4127,  403, 1804,  404
 7712, 3053, 4132, 3051, 1720
 7713, 4112, 3250, 3187, 1279
 7714, 3443, 3539, 1096, 1095
 7715, 3724, 2921, 4144, 3171
 7716, 4117, 1178, 1172, 1177
 7717, 3426, 4023, 3558, 3768
 7718, 3531, 3662, 1696, 1685
 7719, 3472, 3230, 3247, 3186
 7720, 3559, 4204, 1504, 3558
 7721, 3256, 3874, 3888, 1705
 7722, 3559, 1504, 4204, 1505
 7723, 3426, 4204, 4177, 3425
 7724, 4023, 4177, 3426, 4204
 7725, 3220, 3228, 3223, 3229
 7726, 3486, 1458, 3487, 3089
 7727, 4044, 4063,  420, 1940
 7728, 3409, 3070, 3328, 3586
 7729, 3632, 3947, 1977, 3630
 7730, 1180,  252,  251, 1174
 7731, 4046, 1392, 1368, 1939
 7732, 3541, 3069, 3126, 3125
 7733, 4046, 3412, 1391, 3328
 7734, 3206, 1877, 1841, 1847
 7735, 4123, 3460, 3625, 1005
 7736, 3848, 1176, 1171, 1170
 7737, 3093, 3091, 1460, 3086
 7738, 4046, 1939, 1940, 1966
 7739, 3409, 4046, 3328, 3412
 7740, 4202, 4063, 4046, 1368
 7741, 4044, 3412, 4202, 4046
 7742, 3899, 1210, 1209, 1186
 7743, 1169, 3230, 1164, 1228
 7744, 4046, 1967, 1966, 1940
 7745, 1803, 1176,  256,  255
 7746,  258,  252, 1179,   20
 7747, 3845, 1867, 1869, 1817
 7748, 3671, 3672, 3673, 3774
 7749, 3902, 1183, 1184, 1207
 7750, 3504, 1889, 3511, 1849
 7751, 4188, 3848, 4183, 3360
 7752, 3479, 3741, 3738, 3739
 7753, 3503, 3953, 3504, 3511
 7754, 3504, 1889, 3708, 3511
 7755,  252, 1179, 1174, 1180
 7756, 3710, 1817, 3686, 3902
 7757, 1179, 3909, 1178, 1173
 7758, 3456, 3901, 3898, 3902
 7759, 3686, 3901, 1811, 1871
 7760, 3686, 3900, 1839, 3685
 7761, 3686, 3685, 1839, 1869
 7762, 1803,  255, 1177, 1176
 7763, 3781,  251, 1174, 1204
 7764, 3254, 3256, 1679, 1705
 7765, 3254, 3256, 1705, 3874
 7766, 3368, 3886, 3884, 3887
 7767, 3909, 3361, 1826, 3362
 7768,  255, 1802, 3362,  254
 7769, 3661, 3254, 3256, 3973
 7770,  253,  258, 1826, 1178
 7771, 3255, 3256, 3254, 3874
 7772, 3254, 1694, 3875, 4143
 7773, 3312, 3313, 3783, 3786
 7774, 3778, 4054, 1632, 4092
 7775, 3312, 3921, 3778, 3314
 7776, 3312, 3921, 1523, 3784
 7777, 4192, 3334, 3337, 1079
 7778,  258,   20, 1179,  253
 7779, 4192, 4093, 3337, 1310
 7780, 4192, 3337, 4161, 1079
 7781, 3203, 1794,  982,  981
 7782, 4117, 1178, 1173, 1172
 7783, 3318, 3882, 3531, 3888
 7784, 1286, 4192, 3334, 3337
 7785, 4011, 4012, 4010, 4091
 7786, 4093, 4091, 1106, 4161
 7787, 4091, 1107, 4161, 4010
 7788, 4011, 4091, 4010, 1134
 7789, 4134, 1106, 4091, 1133
 7790, 4122, 1334, 1560, 4012
 7791, 1852, 4032,  170, 1797
 7792, 4094, 3247, 1229, 1230
 7793, 4014, 1060, 1087, 1086
 7794, 1797, 1852,   15,  170
 7795, 3830, 1059, 1058, 1032
 7796, 3230, 1229, 3782, 4094
 7797, 3877,  956, 3500,  983
 7798, 4030, 4029, 3501, 3499
 7799, 3497, 4028, 3499, 3506
 7800, 3643, 3877, 4032, 4031
 7801, 1769,  201,  976,  200
 7802, 1182, 1817, 1823, 3710
 7803, 1823, 1182, 1181,  260
 7804, 3889,  170, 3877,  171
 7805, 3095, 3091, 1460, 1459
 7806, 3390, 2983, 3345, 2081
 7807, 1584, 3219, 1588, 2109
 7808, 3219, 1588, 2109, 2983
 7809, 3108, 2983, 3389, 3065
 7810, 3108, 3112, 3113, 3627
 7811, 2983, 3345, 2108, 3219
 7812, 3628, 3391, 3109, 3219
 7813, 1032, 4123, 1005, 1031
 7814, 3093, 3096, 1460, 1461
 7815, 3936, 1252, 1159, 1164
 7816, 4168, 2034, 3608, 3944
 7817,  258, 1179, 1178,  253
 7818, 3971, 3765, 2033, 2060
 7819, 3971, 2061, 3765, 2060
 7820, 3605, 3764, 3606, 3608
 7821, 3971, 2061, 3989, 3765
 7822, 3419, 3606, 3765, 3610
 7823, 1765,  199,  200,  975
 7824, 3090, 3229, 3273, 3940
 7825, 3206, 1877, 1847, 1803
 7826, 3288, 1056, 1029, 1030
 7827, 3652, 1085, 1084, 1058
 7828, 3370, 1232, 1208, 1209
 7829, 3764, 3971, 3606, 3608
 7830, 3841, 1002,  975,  976
 7831, 3162, 4114, 3931, 3648
 7832, 1825,  268, 1189,  267
 7833, 3162, 4112, 3250, 3475
 7834, 1809,  263, 1184,  262
 7835,  290, 1346, 1546, 1548
 7836, 4108, 4090, 1345, 3977
 7837, 4090, 3106, 1663, 1655
 7838, 1183, 3710, 1817, 1182
 7839, 4199, 3819, 4160, 4187
 7840, 3477, 3486, 3485, 3484
 7841, 3104, 1655, 4106, 3105
 7842, 3898, 1208, 1184, 1185
 7843, 3710, 3902, 1183, 1817
 7844, 3993, 3988, 4156, 3783
 7845, 3970, 3988, 3989, 4168
 7846, 3993, 3988, 4016, 4156
 7847, 3249, 1254, 1230, 1231
 7848, 1769, 3457, 3340,  977
 7849, 4016, 4084, 2009, 3992
 7850, 4168, 3944, 4016, 2035
 7851, 3287, 1084, 1083, 1057
 7852, 3564, 1227, 1203,  282
 7853, 3911, 2094,  381, 2093
 7854, 1761,  199,  974,  198
 7855, 3684, 3377, 3710, 3902
 7856, 4159, 1083, 1082, 1056
 7857, 3594, 1283, 3326, 1259
 7858, 3833, 1232, 3370, 1233
 7859, 3156, 3534, 3535, 3536
 7860, 4181, 1055, 1028, 1029
 7861, 3310, 1552, 3913, 3911
 7862, 1809, 1185, 1184,  263
 7863, 3911, 3913, 3912, 2094
 7864, 2068, 3912, 4212, 4213
 7865, 3914, 4212, 3912, 3310
 7866, 3914, 3912, 3985, 2095
 7867, 4212, 2068, 4096, 3985
 7868, 4058, 1988, 4057, 2015
 7869, 4212, 1494, 1519, 3985
 7870, 1813, 1185,  263,  264
 7871, 3985, 4096, 4097, 2069
 7872, 4160, 1082, 1081, 1055
 7873, 1815,  265, 1186,  264
 7874, 3902, 1208, 1207, 1184
 7875, 4033, 3872, 4179, 4158
 7876, 3952, 3626, 1006, 1033
 7877, 3914, 3985, 4212, 1519
 7878, 4194, 1054, 1027, 1028
 7879, 3872, 1211, 1187, 1188
 7880, 3844, 1819, 1831, 1761
 7881, 3378,  971, 3382,  970
 7882, 4212, 1496, 3310, 1520
 7883, 4212, 3310, 1519, 1520
 7884, 4096, 1471, 4214, 1495
 7885, 4212, 3310, 1496, 4214
 7886, 3488, 3904, 3711, 3377
 7887, 1759,  197,  198,  973
 7888, 3885, 1833, 3457, 1769
 7889, 3904, 1173, 4117, 1178
 7890, 4179,  974, 1000,  973
 7891, 4077, 4079, 1236, 1237
 7892, 4078, 1027, 1000, 1001
 7893,  199, 3844,  974,  975
 7894, 3782, 3909, 4094, 1205
 7895, 3899, 1186, 1209, 1185
 7896, 3909, 3361, 1181, 1826
 7897, 2983, 3065, 2083, 3389
 7898, 3109, 3628, 3219, 1649
 7899, 3395, 3109, 1686, 3628
 7900, 3395, 1648, 3969, 1650
 7901, 1819, 1187,  265,  266
 7902, 1819, 1188, 1187,  266
 7903, 3395, 1686, 3109, 1648
 7904, 3842, 3658, 4158, 4075
 7905, 3288, 3657, 1030, 1029
 7906, 3833, 3327, 1234, 3956
 7907, 3873, 1212, 1188, 1189
 7908, 1234, 3833, 1233, 1257
 7909, 3109, 3628, 1649, 1686
 7910, 3469, 1330, 3464, 3651
 7911, 3392, 3627, 3743, 3113
 7912, 3562, 1203, 1226, 1202
 7913,  267, 1188, 1189, 1822
 7914, 1759,  198, 1761,  974
 7915, 3912, 4212, 3913, 3310
 7916, 4212, 4214, 1496, 1495
 7917, 3309, 3913, 1552, 4163
 7918, 3378,  195, 3380,  971
 7919, 1776,  194,  969,  193
 7920, 1496, 3310, 1497, 4214
 7921, 1552, 1550, 3911, 3310
 7922, 3911, 3914, 3912, 3310
 7923, 3310, 3913, 3309, 3311
 7924, 3308, 1614, 3310, 1521
 7925, 3327, 1259, 1258, 1235
 7926, 1521, 3310, 1496, 1520
 7927, 3378, 1763, 1766, 1825
 7928, 4164, 1026, 1025,  999
 7929, 3871,  972,  999,  998
 7930,  357, 1614, 1520, 1617
 7931, 4081, 4027, 4185,  996
 7932, 4026,  995,  968,  969
 7933, 1614, 1520, 1617, 3310
 7934, 4194, 3335, 4186, 1054
 7935, 3381,  270, 1191,  269
 7936, 4027, 1192, 1215, 1191
 7937, 3335, 4161, 3337, 1079
 7938, 4192, 4093, 4161, 3337
 7939, 4199, 4093, 4161, 4135
 7940, 4160, 4162, 1082, 3820
 7941, 4192, 4093, 1106, 4161
 7942, 1192,  270, 3381, 2996
 7943, 1247, 1248, 3077, 1271
 7944, 3381, 3382, 4027,  970
 7945, 3787, 3886, 1485, 1509
 7946, 2924, 3661, 2987, 3044
 7947, 3368, 3319, 3532, 3367
 7948, 1218, 1021,  994,  995
 7949, 1194,  968,  994,  967
 7950, 2996, 4027, 4026,  969
 7951, 1218, 1022, 1021,  995
 7952, 2996,  270,  271, 1192
 7953, 4081,  996, 1023, 1022
 7954, 1218, 1020,  993,  994
 7955, 4121, 1103, 4198, 1104
 7956, 1218,  995,  994, 1194
 7957, 1194,  967,  993,  966
 7958, 4081, 4184, 1022, 1023
 7959, 2996, 1192,  271, 1193
 7960, 1509, 3886, 3884, 3787
 7961, 3364, 3662, 3256, 3661
 7962, 3857, 3867, 3152, 1510
 7963, 3409, 3344, 4045, 3411
 7964, 4153,  189,  190,  965
 7965, 4045, 3585, 4062, 3344
 7966, 4025,  967, 1194,  272
 7967, 3409, 3410, 4044, 3412
 7968, 1242, 1021, 1218, 1022
 7969, 3409, 3412, 4044, 4046
 7970, 4045, 3411, 1879, 1827
 7971, 4025, 1193, 1194,  968
 7972, 4184, 1023, 4178, 1050
 7973, 3410, 1745, 3728, 1827
 7974, 3127, 1412, 3087, 3522
 7975, 3121, 3127, 3087, 3522
 7976,  966,  967,  191,  272
 7977,  274,  965, 4153, 1196
 7978, 3554, 1225, 4065, 3246
 7979,  278, 1746,  277, 1199
 7980, 3864, 1640, 1581, 1585
 7981, 1219,  993, 1196, 1195
 7982, 3809,  991,  964,  965
 7983, 1195,  273, 1194,  966
 7984, 1195, 1194,  993,  966
 7985, 1220, 1019,  992,  993
 7986, 1220, 1196,  993,  992
 7987, 1412, 3087, 1437, 3127
 7988, 3099, 3093, 3087, 1437
 7989, 4152,  189,  964,  188
 7990, 3099, 3127, 1437, 3087
 7991, 4153,  273, 1195,  966
 7992, 4153, 1196,  965,  966
 7993, 1196, 4150,  274,  965
 7994, 3828, 1018, 1017,  991
 7995, 4153,  274, 1196, 1195
 7996, 4024,  964,  963,  188
 7997, 4024,  188,  963,  187
 7998, 3215, 3017, 3201, 3059
 7999,  965, 4150,  274,  189
 8000, 4150, 1739, 1737,  275
 8001, 2990, 3213, 3099, 3098
 8002, 3543, 1638, 1577, 1581
 8003, 3809,  990,  963,  964
 8004, 1222, 3815, 3033, 1221
 8005, 4150, 1196, 1197,  965
 8006, 3127, 3097, 3098, 1413
 8007, 4024, 3809,  963,  964
 8008, 1197, 1196,  992,  965
 8009, 4180,  277, 1198,  276
 8010, 4216, 4218, 4215, 4056
 8011, 4058, 4060, 2041, 2042
 8012, 4059, 4216, 4215, 4056
 8013, 4219, 4216, 2014, 4056
 8014, 3532, 3531, 3367, 3662
 8015, 3367, 3531, 3107, 1708
 8016, 3367, 4002, 3887, 3884
 8017, 1242, 1219, 1218, 1020
 8018, 3809, 1197, 1221,  992
 8019, 3532, 3367, 3531, 3107
 8020, 3086, 3087, 2989, 3093
 8021, 3887, 3369, 4001, 3368
 8022, 3981, 3800, 3795, 1834
 8023, 3800, 3981, 3799, 4071
 8024, 3795, 3982, 1380, 1812
 8025, 4013,  277, 1746, 1199
 8026, 3815, 1221, 1244, 1220
 8027, 3027, 1045, 1044, 1018
 8028, 1244, 1020, 1047, 1046
 8029, 3800, 4071, 4072, 3981
 8030, 3802, 3982, 3797, 3793
 8031, 4219, 4220, 1987, 4221
 8032, 3829, 1016,  989,  990
 8033, 3177, 3588, 3176, 3277
 8034, 3805, 3804, 4221, 3050
 8035, 3805, 4221, 1960, 3050
 8036, 4220, 4222, 1400, 3804
 8037, 1746,  278, 3080, 1199
 8038, 3805, 4221, 1959, 1960
 8039, 3805, 3806, 1931, 1958
 8040, 3049, 3804, 3050, 1376
 8041, 3663, 1201, 1225, 1224
 8042, 3529, 1143, 1581, 1142
 8043, 3803, 3805, 3804, 3806
 8044, 3803, 1818, 3808, 3807
 8045, 3602, 4065, 1250, 3224
 8046, 3357, 3245, 3817, 3839
 8047, 4026, 1217, 1216, 1193
 8048, 4081, 4027, 1216, 4185
 8049, 3805, 1932, 1757, 1762
 8050, 3570, 1857, 3623, 1899
 8051, 3034, 1222, 1221, 1198
 8052, 3014, 3241, 3239, 3240
 8053, 3665, 1072, 1071, 1045
 8054, 1221, 1220,  992, 1197
 8055, 3676, 4052, 1856, 1865
 8056, 3660, 1225, 1202, 1226
 8057, 3570, 3676, 1899, 3623
 8058, 3272, 3363, 3273, 3674
 8059, 1752,  280, 1201,  279
 8060, 3123, 3706, 3840, 3125
 8061, 4149, 1748, 1754, 1828
 8062, 1749, 1201, 1200,  279
 8063, 1364, 1750, 1751, 3727
 8064, 3116, 3113, 3854, 3770
 8065, 3743, 3627, 3750, 3748
 8066, 3570, 3623, 1857, 3569
 8067, 3627, 3928, 3750, 2056
 8068, 3627,  407, 3748,  406
 8069, 1377, 1820,  338, 1376
 8070, 3111, 1589, 3110, 3920
 8071, 3389, 3928, 3392, 3627
 8072, 3627, 3065,  406, 3769
 8073, 1752, 1202, 1201,  280
 8074, 3627, 3748,  407, 2056
 8075, 4183, 3360, 1009, 4188
 8076, 4188,  208, 4183, 1170
 8077, 1754, 1202,  280,  281
 8078, 4188, 1170,  209,  208
 8079, 4188, 3243, 3848, 3360
 8080, 4188,  209, 4173, 1036
 8081, 4188, 4173, 3243, 1036
 8082, 4162, 3468, 3820, 3819
 8083, 1754,  281, 1203, 1202
 8084, 4162, 3820, 1109, 1082
 8085, 3833, 1256, 1232, 1233
 8086, 4161, 4010, 4162, 4135
 8087, 3032, 4162, 3820, 1109
 8088, 1440, 2925, 2926, 3213
 8089, 3220, 3225, 3068, 3067
 8090, 2992, 3324, 3232, 3236
 8091, 1463, 3150, 2925, 3146
 8092, 3146, 3253, 3150, 2925
 8093, 1748,  281,   21, 1203
 8094, 4149, 1747, 1828, 1887
 8095, 3485, 1506,  321,  320
 8096, 3377, 1205, 1182, 1206
 8097, 3366, 3150, 3253, 2049
 8098, 4185, 1024, 1023,  997
 8099, 3781, 3782, 1204, 1174
 8100, 3909, 1181, 1204, 1180
 8101, 3213, 3253, 3324, 2992
 8102, 3299, 3646, 3154, 3475
 8103, 4094, 1230, 1229, 1206
 8104, 3253, 2048, 3150, 2925
 8105, 3782, 1168, 1173, 1174
 8106, 3253, 2925, 2021, 2048
 8107, 3778, 4054, 4209, 4055
 8108, 3924, 4017, 3671, 4155
 8109, 4113, 1086, 1085, 1059
 8110, 3940, 3090, 3091, 3522
 8111, 3779, 1454, 4105, 3609
 8112, 3371, 1231, 1207, 1208
 8113, 3606, 2033, 3765, 3610
 8114, 3605, 3612, 3608, 3607
 8115, 4219, 4223, 4218, 4222
 8116, 4176, 4224, 1984, 4139
 8117, 3885, 1769,  976,  200
 8118, 4176, 1984, 4223, 2011
 8119, 1274, 3222, 1250, 3224
 8120, 3899, 1210, 1186, 1187
 8121, 4219, 4225, 4223, 2012
 8122, 3590, 3597, 3596, 3651
 8123, 3216, 3941, 3491, 3942
 8124, 3942, 3491, 2000, 1999
 8125, 3956, 1211, 1234, 1210
 8126, 3321, 1306, 1305, 1282
 8127, 3942, 2027, 3494, 2026
 8128, 3592, 3830, 3653, 4169
 8129, 3182, 3599, 3181, 3600
 8130, 3181,  949, 3180, 4049
 8131, 4078, 4179, 4200, 4075
 8132, 4182, 1112, 1111, 1085
 8133, 4186, 1054, 1053, 1027
 8134, 3181, 3599,  946, 3600
 8135, 3740, 3188,  408, 3749
 8136, 3178, 3729, 3181, 3180
 8137, 4186, 1053, 1026, 1027
 8138, 4077, 1236, 1212, 1213
 8139, 3379, 1213, 1189, 1190
 8140, 3032, 4010, 1108, 1135
 8141, 3545, 3156, 3536, 3534
 8142, 3868, 1756, 1825, 1822
 8143, 3470, 1110, 3820, 1083
 8144, 4164, 1026,  999, 1000
 8145, 3820, 1083, 4159, 3595
 8146, 3462, 3843, 3461, 3842
 8147, 3843, 3844, 3842, 4179
 8148, 3382, 1191, 1214, 1190
 8149, 3871, 4164,  998,  999
 8150, 3469, 3820, 3468, 3819
 8151, 3593, 3595, 3820, 4159
 8152, 3956, 1235, 1234, 1211
 8153, 3470, 3595, 3597, 1083
 8154, 4212, 3913, 4213, 3912
 8155, 3379, 1214, 1213, 1190
 8156, 4083, 4178, 1024, 1051
 8157, 3326, 1259, 1282, 1258
 8158, 4213, 4096, 4215, 4214
 8159, 3072, 3959, 3069, 3126
 8160, 4080, 1238, 1214, 1215
 8161, 4214, 3311, 1497, 4226
 8162, 4189, 4184, 4178, 1050
 8163, 4026, 1193, 1216, 1192
 8164, 3868, 3870,  972,  973
 8165, 4185, 1239, 1215, 1216
 8166, 3310, 4214, 3913, 3311
 8167, 4227, 4214, 3311, 3913
 8168, 1242, 1049, 1048, 1022
 8169, 3556, 3559,  687,  680
 8170, 3629, 3633, 3630, 3634
 8171, 3629, 3631, 3637, 3615
 8172, 1950, 3632, 3630, 3634
 8173, 1218, 1194,  994,  993
 8174, 1242, 1047, 1020, 1021
 8175, 1217, 1194, 1193,  995
 8176, 3076, 1247, 1224, 1248
 8177, 3948, 1923, 3634, 1950
 8178, 4211,  313, 1747,  314
 8179, 3948,  703, 3638, 4197
 8180, 1219, 1195, 1218,  993
 8181, 4196, 3639, 3948,  703
 8182, 1008, 3952, 3298, 3211
 8183, 1218, 1194, 1217,  995
 8184, 3815, 1245, 1244, 1221
 8185, 3846, 3683, 1007, 3211
 8186, 3840, 1364, 3125, 1388
 8187, 3298, 3211, 3360, 1008
 8188, 1219, 1218, 1020,  993
 8189,  288,  287, 4107, 1360
 8190, 3034, 3809, 4180, 1198
 8191, 1243, 1020, 1220, 1219
 8192, 3815, 3828,  991, 1018
 8193, 1220, 1219,  993, 1196
 8194, 1220, 1219, 1020,  993
 8195, 1221, 1198, 3809, 3034
 8196, 3211, 3298, 3209, 3952
 8197, 3952, 3211, 1008, 1007
 8198, 3026, 1073, 1072, 1046
 8199, 3815, 1220, 1019,  992
 8200, 1752, 3569, 1864, 3660
 8201, 1244, 1220, 1020, 1019
 8202, 3562, 3602, 1250, 1251
 8203, 4191, 4198, 1288, 1289
 8204, 1749,  279, 1752, 1201
 8205, 3207, 3208, 3209, 3346
 8206, 3663, 1224, 1200, 1201
 8207, 3168, 1223, 1200, 1224
 8208, 3125, 1389, 1364, 1365
 8209, 3727, 1865, 3676, 3678
 8210, 4087, 1397, 3999, 4000
 8211, 4087, 1397, 3855, 1421
 8212, 3666, 1099, 1098, 1072
 8213, 4087, 3855, 1962, 1989
 8214, 3246, 1225, 1249, 1248
 8215, 4087, 4228, 1990, 1420
 8216, 3382, 4027,  970,  997
 8217, 3269, 1042, 1015, 1016
 8218, 1267, 1266, 1047, 1243
 8219, 3382, 3379, 1190, 1214
 8220, 1215, 1214, 4080, 3382
 8221, 1290, 1075, 1266, 1076
 8222, 3660, 1225, 1201, 1202
 8223, 3562, 1227, 1250, 1226
 8224, 3562, 1227, 1226, 1203
 8225, 1345, 1545, 1546, 4108
 8226, 3674, 3567, 1387, 3566
 8227, 3825, 3977, 1321, 3978
 8228, 3825, 1345, 4108, 1344
 8229, 3275, 2974, 4108, 3106
 8230, 4090, 3977, 4108, 3106
 8231, 4112, 3187, 1255, 1279
 8232, 3825, 3977, 4108, 1345
 8233, 4108, 4166, 1698, 4109
 8234, 3522, 1435, 3675, 1411
 8235, 3374, 4123, 3592, 3459
 8236, 3275, 4109, 4108, 2974
 8237, 3564, 1350,  283,  282
 8238, 3660, 1749, 3663, 2933
 8239, 1663, 1698, 2974, 4108
 8240, 3372, 3626, 4123, 3625
 8241, 3935, 3936, 1277, 1276
 8242, 3626, 1032, 3625, 1033
 8243, 3936, 1158, 1164, 1159
 8244, 3208, 3687, 3210, 3683
 8245,  249, 1228,  250, 1164
 8246, 3186, 1277, 1253, 1254
 8247, 1252,  249,  248, 1159
 8248, 3300, 3211, 3360, 3298
 8249, 3534, 3155, 3545, 3156
 8250, 3372, 3394, 4041, 3347
 8251, 3371, 1232, 1231, 1208
 8252, 3394, 1255, 1231, 1232
 8253, 3370, 1233, 1232, 1209
 8254, 3603,  285, 3223, 1275
 8255, 4033, 1819, 1188, 1187
 8256, 3980, 1297, 3277, 1273
 8257, 3534, 1114, 1087, 1088
 8258, 3326, 1258, 1281, 1257
 8259, 3956, 1233, 1209, 1210
 8260, 3388, 1598, 3968, 3383
 8261, 2926, 1417, 2020, 1441
 8262, 3324, 3253, 2021, 2022
 8263, 3325, 2926, 1440, 1415
 8264, 4011, 1135,  223,  224
 8265, 4200, 1212, 1235, 1211
 8266, 3286, 3288, 1056, 1029
 8267, 4082, 1279, 1255, 1256
 8268, 1440, 3325, 1439, 3213
 8269, 3325, 2926, 3328, 3324
 8270, 3032, 1136, 1135, 1109
 8271, 2925, 2926, 3213, 3253
 8272, 2926, 2020, 1993, 1994
 8273, 4076, 1259, 1235, 1236
 8274, 2925, 2047, 1440, 2020
 8275, 4110, 1280, 1256, 1257
 8276, 3335, 1080, 1053, 1054
 8277, 4161, 1107, 1080, 1081
 8278, 1822, 1189, 1825, 3868
 8279, 4157, 1214, 1237, 1213
 8280, 4189, 1077, 1050, 1051
 8281, 3563, 1352, 3603,  284
 8282, 3563, 3602, 3562, 1251
 8283, 3563, 3564, 1350,  283
 8284, 3957, 1813, 1809, 1835
 8285, 4200, 1236, 1235, 1212
 8286, 3873, 3872, 1188, 1212
 8287, 3871, 3870,  999,  972
 8288, 1377, 3803, 1818, 1820
 8289, 4083, 1025, 4186, 1052
 8290, 3806, 4224, 1957, 1958
 8291, 4077, 1237, 1236, 1213
 8292, 4199, 4187, 1284, 3819
 8293, 3805, 1959, 4221, 1958
 8294, 4193, 1261, 1285, 1284
 8295, 3326, 1257, 3327, 1258
 8296, 3803, 3807, 3806, 3804
 8297, 4157, 1238, 1237, 1214
 8298, 4189, 1078, 1077, 1051
 8299, 4083, 4080, 4178, 1239
 8300, 3805, 1960, 3962, 3050
 8301, 3991, 4170, 1426, 1450
 8302, 3987, 1427, 1452, 1451
 8303, 3994, 3996, 3991, 3995
 8304, 3562, 3272, 3561, 3546
 8305, 4080, 1239, 1238, 1215
 8306, 3382, 4080, 1215, 4185
 8307, 3330, 3875, 3533, 3906
 8308, 4185, 1239, 1216, 1240
 8309, 3991, 3987, 3785, 1475
 8310, 4184, 1049, 1265, 1241
 8311, 3991, 3995, 1426, 4170
 8312, 4081, 1217, 1240, 1216
 8313, 3904, 3361, 3711, 3377
 8314, 1181, 1823, 1826, 3361
 8315, 3571,  315, 1755, 1362
 8316, 3361, 1910, 3711, 1823
 8317, 3334, 4189, 1263, 4178
 8318, 1266, 1265, 1076, 1049
 8319, 3909, 1178, 3362, 1826
 8320, 3361, 3711, 1910, 3362
 8321, 1242, 1218, 1021, 1020
 8322, 1243, 1219, 1242, 1020
 8323, 3027, 3665, 1044, 1045
 8324, 3468, 3852, 4010, 3466
 8325, 1268, 3832, 1269, 1245
 8326, 1242, 1241, 1022, 1218
 8327, 4199, 4161, 4162, 4135
 8328, 4093, 4091, 4161, 4135
 8329, 3217, 2024, 1997, 1998
 8330, 3852, 4010, 4135, 3468
 8331, 1242, 1022, 1241, 1049
 8332, 4199, 1285, 4193, 3336
 8333, 1243, 1242, 1047, 1020
 8334, 3470, 1137, 3032, 1110
 8335, 4199, 3468, 4162, 3819
 8336, 3832, 1269, 1245, 1246
 8337, 3032, 1108, 4162, 1109
 8338, 1244, 1243, 1020, 1220
 8339, 1244, 1243, 1047, 1020
 8340, 3832, 3828, 3815, 1018
 8341, 3076, 1224, 1247, 1223
 8342, 3815, 1246, 1245, 1222
 8343, 1046, 3832, 1245, 1019
 8344, 3852, 1616, 1549, 1613
 8345, 1268, 1046, 1244, 1047
 8346, 3295, 3494, 3199, 3942
 8347, 3224, 1273, 3176, 1249
 8348, 4199, 3819, 1308, 3468
 8349, 3670, 1126, 1099, 1100
 8350, 1551, 3466, 3032, 4010
 8351, 3670, 1127, 1126, 1100
 8352, 1992, 1419, 1418, 1394
 8353, 3852, 4012, 4135, 4010
 8354, 3032, 3820, 4162, 3468
 8355, 4184, 1265, 1264, 1241
 8356, 3541, 3727, 1750, 1365
 8357, 3269, 3976, 1015, 1042
 8358, 3341, 3038, 3135, 3134
 8359, 3245, 3359, 3976, 1015
 8360, 4012, 4122, 1133, 1556
 8361, 3637, 3725, 3812, 3691
 8362, 1750, 1365, 1364,  326
 8363, 3143, 3142, 3332, 3405
 8364, 3563, 1227,  283, 1251
 8365, 1099, 3670, 1100, 3667
 8366, 3328, 1968, 1995, 1994
 8367, 3403, 3908, 3404, 3910
 8368, 1067, 3441, 3816, 3438
 8369, 4103, 3856, 3443, 3405
 8370, 3437, 3436, 3406, 3747
 8371, 3192, 3527, 3478, 3891
 8372, 3526, 1040, 3527, 3816
 8373, 3478, 3526, 3438, 1039
 8374, 3437, 1066, 3438, 3436
 8375, 3437, 3744, 1066, 1093
 8376, 4083, 1238, 1239, 1262
 8377, 3438, 3439, 1039, 1066
 8378, 4065, 1249, 1226, 1250
 8379, 4207, 1368,  329,  330
 8380, 3563, 1251,  283,  284
 8381, 3566, 1410, 1386, 1411
 8382, 4207, 4063, 1368, 1939
 8383, 4207, 1740,  331,  330
 8384, 4207, 4063, 1740, 1738
 8385, 3196, 3295, 3283, 3289
 8386, 3249, 1255, 1254, 1231
 8387, 3675, 3940, 3689, 1434
 8388, 3186, 1253, 3247, 1254
 8389, 3472, 3174, 3230, 3936
 8390, 4112, 3187, 4041, 1255
 8391, 3154, 3304, 3572, 3157
 8392, 4219, 1985, 4223, 4224
 8393, 4137, 4218, 1425, 4229
 8394, 4221, 4224, 1958, 1985
 8395, 3247, 1254, 1253, 1230
 8396, 3626, 4015, 1032, 1033
 8397, 3230, 1229, 1253, 1252
 8398, 1163, 3230, 1164, 1169
 8399, 3936, 1252, 1276, 1159
 8400, 3936, 1253, 1277, 1276
 8401, 4137, 4229, 4223, 4218
 8402, 4115, 4088, 1300, 3935
 8403, 3247, 1230, 1253, 1229
 8404, 4219, 4223, 4222, 4224
 8405,  437, 3635, 1922, 1923
 8406, 3633, 3720, 3635, 3636
 8407, 3186, 1278, 1277, 1254
 8408, 4082, 4007, 1279, 1280
 8409, 3780, 1502, 1501, 1477
 8410, 4088, 1301, 1300, 1277
 8411, 3635, 1876, 3636, 1840
 8412, 4006, 1113, 1112, 1086
 8413, 3909, 1180, 1179, 1178
 8414, 3635, 3638, 4102, 1911
 8415, 3394, 1256, 1255, 1232
 8416, 4113, 3535, 4006, 1086
 8417, 3634, 3632, 3630, 3629
 8418, 3635, 3654, 1911, 1793
 8419, 3664, 3767,  700,  693
 8420, 3833, 1257, 1256, 1233
 8421, 3174, 4172, 1162, 1163
 8422, 3187, 1279, 1278, 1255
 8423, 3593, 3594, 4159, 4187
 8424, 4005, 3653, 3596, 3338
 8425, 4082, 1280, 1279, 1256
 8426, 3019, 2922, 2921, 3664
 8427, 1586, 2922, 2085, 2959
 8428, 3032, 1110, 1137, 1136
 8429, 1582, 2922, 2085, 1586
 8430, 4076, 1260, 1259, 1236
 8431, 2959, 2922, 2085, 2958
 8432, 3822, 3821, 3302, 1631
 8433, 4187, 1260, 1283, 1259
 8434, 3778, 3783, 3923, 4156
 8435, 4093, 1333, 4135, 1309
 8436, 4079, 1260, 1236, 1237
 8437, 4079, 1238, 1261, 1237
 8438, 3465, 3824, 4129, 3651
 8439, 3593, 1283, 3819, 1307
 8440, 3921, 1632, 4054, 1630
 8441, 3336, 1286, 1285, 1262
 8442, 4161, 1106, 1079, 1080
 8443, 4091, 1133, 1106, 1107
 8444, 3603, 1352, 1354,  284
 8445, 4157, 4083, 4079, 1238
 8446, 3335, 1052, 4186, 1053
 8447, 4079, 1261, 1260, 1237
 8448,  354, 1605, 1523, 1607
 8449, 3870,  973, 1000,  999
 8450, 1605, 1523, 1607, 3921
 8451, 3852, 4135, 1332, 3468
 8452, 4199, 1285, 1308, 1284
 8453, 3921, 3777, 1605, 1524
 8454, 4079, 1262, 1261, 1238
 8455, 4134, 1132, 1105, 1106
 8456, 4055, 3778, 4156, 4209
 8457, 3921, 3777, 1632, 1605
 8458, 3921, 1630, 3314, 1607
 8459, 4194, 4160, 4187, 4193
 8460, 3334, 1286, 1262, 1263
 8461, 4130, 3763,  927, 4061
 8462, 1596, 3763,  927, 4130
 8463, 4118, 3762, 1595, 3578
 8464, 4119, 4121, 4206, 1336
 8465, 3334, 4083, 1052, 1051
 8466, 1265, 1049, 1242, 1241
 8467, 3199, 3495, 3941, 3494
 8468, 3763, 3578, 1715, 1595
 8469, 1314, 1102, 1101, 1290
 8470, 3763, 3449, 3762, 4061
 8471, 4120, 4121, 4190, 1104
 8472, 3281, 1898, 3280, 1906
 8473, 1266, 1242, 1048, 1047
 8474, 3421, 3274, 3422, 3276
 8475, 3281, 1909, 3063, 1882
 8476, 3927, 3928, 3389, 2055
 8477, 3004, 3022, 3349, 3348
 8478, 3225, 3067, 3226, 2968
 8479, 3281, 1882, 3239, 1898
 8480, 3355, 3665, 3589, 1294
 8481, 3013, 3919, 3281, 3239
 8482, 3015, 3919, 3280, 3281
 8483, 3010, 3238, 3951, 3239
 8484, 3818, 4151, 3238, 3829
 8485, 1266, 1265, 1049, 1242
 8486, 1290, 1075, 1102, 1101
 8487, 3860, 3145, 1461, 3093
 8488, 1267, 1047, 1266, 1074
 8489, 3860, 3093, 1461, 3096
 8490, 3317, 3860, 3093, 3145
 8491, 3319, 3860, 3787, 3886
 8492, 3012, 1017, 3267, 3829
 8493, 3368, 3096, 3860, 3886
 8494, 1268, 1267, 1047, 1244
 8495, 1268, 1047, 1267, 1074
 8496, 3589, 1269, 1246, 1270
 8497,  250, 3781, 1169, 1228
 8498, 3587, 1295, 1271, 1272
 8499, 3026, 1046, 1268, 1073
 8500, 3576, 1858, 4067, 3788
 8501, 1292, 1268, 1074, 1073
 8502, 3589, 3077, 1270, 1246
 8503, 4064,  298, 1338, 1339
 8504, 3668, 1319, 1318, 1295
 8505, 1339, 1128, 1316, 1315
 8506, 4219, 4225, 4216, 4218
 8507, 4218, 4056, 1423, 1447
 8508, 3224, 1249, 1250, 1273
 8509, 4218, 1449, 4229, 4226
 8510, 3091, 3087, 3093, 1436
 8511, 3978, 1297, 1298, 1321
 8512, 3588, 1271, 1248, 1272
 8513, 3624, 1249, 1272, 1248
 8514, 3277, 1273, 1297, 1296
 8515, 4225, 4226, 4218, 4229
 8516, 4225, 4218, 4223, 4229
 8517, 3819, 1308, 1307, 1284
 8518, 4218, 4215, 4056, 1447
 8519, 4095, 4208, 2071, 2070
 8520, 3985, 1518, 3986, 1494
 8521, 1314, 1103, 1130, 1129
 8522, 3984, 4095, 2098, 2097
 8523, 4095, 2097, 2071, 2098
 8524, 3967, 1626, 1542, 1537
 8525, 3984, 4095, 3986, 1517
 8526, 3983, 3984, 3986, 1517
 8527, 3905, 3443, 4103, 1122
 8528, 3603, 1251,  284, 1275
 8529, 2052, 3861, 3495, 3851
 8530, 3408, 1703, 1677, 1683
 8531, 3603, 1354,  285,  284
 8532, 3478, 3853, 3193, 3480
 8533, 3675, 1410, 1411, 1435
 8534, 3231, 3217, 2024, 3235
 8535, 3521, 1998, 3214, 3941
 8536, 3941, 2025, 3521, 1998
 8537, 2025, 3521, 1998, 2024
 8538, 3062, 3080, 1888, 2933
 8539, 3564, 1350, 1348, 1351
 8540, 3060, 2933, 3062, 3075
 8541, 2930, 3118, 2935, 2937
 8542, 3098, 3099, 1437, 1438
 8543, 1276, 1252,  248, 1159
 8544, 1273, 3176, 1249, 1272
 8545, 3936, 1276, 1252, 1253
 8546, 1277, 3935, 3251, 3936
 8547, 2935, 3176, 3177, 3588
 8548, 3754, 1608, 1327,  309
 8549, 3160, 1664, 1667, 1638
 8550, 3121, 3706, 3127, 3522
 8551, 3068, 3602, 3229, 3222
 8552, 3155, 3864, 3529, 3862
 8553, 3534, 1116, 3529, 1115
 8554, 3251, 1278, 1301, 1277
 8555, 3086, 3090, 3094, 3088
 8556, 3638,  703,  696,  695
 8557, 3754, 3544, 1667, 1669
 8558, 4038, 1608, 1612, 1326
 8559, 1324, 1149,  246,  245
 8560, 4110, 3326, 1281, 1257
 8561, 3100, 3369, 3368, 4001
 8562, 3250, 1279, 1303, 1302
 8563, 3590, 3651, 3596, 3321
 8564, 3073, 4098, 3753, 3342
 8565, 3004, 3349, 3003, 3348
 8566, 4213, 3912, 3913, 2067
 8567, 3913, 4163, 2066, 2093
 8568, 3037, 3036, 3072, 3069
 8569, 3560, 4144, 3724, 1713
 8570, 1669, 4125, 3754, 3544
 8571, 3560,  687, 3559, 3722
 8572, 3557, 1713, 3724, 1615
 8573,  349, 3557, 1527, 1615
 8574, 3338, 1281, 1304, 1280
 8575, 3755, 3597, 4182, 1111
 8576, 1551,  222,  223, 1136
 8577, 4076, 4193, 1260, 4079
 8578, 3557, 1615,  349, 1618
 8579, 3124, 3097, 3122, 1389
 8580, 3724, 3559, 3557, 3558
 8581, 3556, 3560, 3557, 1618
 8582, 4161, 4010, 1107, 1108
 8583, 4093, 1309, 3337, 1310
 8584, 3556, 1504, 1529, 1528
 8585, 3268, 3621, 3525, 1042
 8586, 3336, 1262, 1285, 1261
 8587, 3824, 1629, 1631, 1604
 8588, 4122,  226, 1132, 1133
 8589, 3670, 1341, 1127, 1317
 8590, 3677, 1864, 3623, 2933
 8591, 3060, 3061, 3341, 3079
 8592, 3350, 3523, 3407, 3975
 8593, 3390, 3494, 3927, 3496
 8594, 4194, 3335, 4193, 4186
 8595, 3390, 2081, 3345, 3496
 8596, 3403, 3910, 3332, 3435
 8597, 3337, 1310, 1309, 1286
 8598, 4192, 1287, 4190, 1311
 8599, 4190, 1104, 1077, 1078
 8600, 4192, 1105, 1078, 1079
 8601, 1627, 1610, 3466, 1553
 8602, 3927, 3928, 2055, 3292
 8603, 4012, 4010, 4091, 4135
 8604, 4120, 1131, 1104, 1105
 8605, 3927, 3389, 2082, 2055
 8606, 4198, 1313, 1289, 1103
 8607, 4189, 1288, 1287, 1264
 8608, 4199, 3335, 4161, 3337
 8609, 3127, 1412, 3706, 1413
 8610, 3390, 2081, 3927, 2082
 8611, 1287, 1286, 4192, 3334
 8612, 4191, 1288, 1264, 1265
 8613, 1313, 1130, 1337, 1314
 8614, 1310, 4134, 4192, 4093
 8615, 3198, 3927, 3494, 3294
 8616, 2958, 2959, 3664, 3175
 8617, 1290, 1289, 1103, 1076
 8618, 3175, 4066, 2057, 2084
 8619, 2958, 3169, 2086, 3771
 8620, 2958, 3715, 2059, 2058
 8621, 1290, 1074, 1266, 1075
 8622, 4066, 2057, 3712, 3175
 8623, 3164, 3165, 3019, 3167
 8624, 3890, 1850, 3708, 1848
 8625, 1289, 1076, 1266, 1265
 8626, 1314, 1291, 1290, 1101
 8627, 1340, 1128,  230,  231
 8628, 4029, 3501, 4036, 1947
 8629, 4029, 3890, 3708, 1848
 8630, 1290, 1289, 1076, 1266
 8631, 1314, 1102, 1128, 1101
 8632, 4036, 1946, 3890, 1947
 8633, 1270, 1271, 3589, 1294
 8634, 3506, 3890, 4029, 4036
 8635, 3969, 4101, 3747, 3404
 8636, 3587, 1295, 1294, 1271
 8637, 3969, 4101, 1650, 1579
 8638, 1291, 1074, 1290, 1101
 8639, 3969, 1119, 3396, 3745
 8640, 3548, 3076, 1223, 3034
 8641, 1315, 1101, 1292, 1291
 8642, 3026, 1293, 1292, 1269
 8643, 1292, 1291, 1074, 1268
 8644, 1292, 1074, 1291, 1101
 8645, 1269, 1293, 3589, 3026
 8646, 3969, 1648, 3396, 1583
 8647, 1315, 1291, 1314, 1101
 8648, 3561, 3568, 3571, 3567
 8649, 3667, 1292, 1100, 1073
 8650, 4201,  295,  296, 1341
 8651, 1316, 1100, 1292, 1101
 8652, 3486, 1458, 1459, 1483
 8653, 3887, 1485, 1509, 1484
 8654, 3667, 1318, 1317, 1294
 8655, 3570, 3571, 1887, 1753
 8656, 3570, 1856, 3676, 4052
 8657, 3570, 3571, 4149, 1887
 8658, 3571, 1887, 1753, 1755
 8659, 1338, 1130,  228,  229
 8660, 3567, 3566, 1386, 1387
 8661, 3547, 3570, 4052, 3567
 8662, 2968, 3422, 3277, 3978
 8663, 3587, 1295, 1272, 1296
 8664, 4052, 3567, 3571, 1363
 8665, 3567, 3568, 1386, 3566
 8666,  244, 1148, 1598, 1599
 8667, 4088, 4115, 4038, 3159
 8668, 4194, 4078, 4075, 1028
 8669, 3547, 3727, 3840, 4052
 8670, 1564, 1125,  234, 1124
 8671, 3410, 1827, 1741, 1745
 8672, 3675, 1410, 1435, 1434
 8673, 3968, 3383, 1598, 1673
 8674, 3159, 3387, 3968, 3383
 8675, 3968, 1673, 4038, 3383
 8676, 4002, 3884, 1662, 1544
 8677, 4002, 3887, 1508, 1507
 8678, 3223, 1354, 1356,  285
 8679, 1564,  233,  234, 1125
 8680, 3105, 4002, 1547, 3483
 8681, 3674, 3522, 1411, 1412
 8682, 1318, 3670, 1341, 1342
 8683, 4002, 4001, 1684, 1662
 8684, 4001, 3887, 3367, 4002
 8685, 4002, 3483, 3887, 1507
 8686, 3367, 4001, 1662, 1708
 8687, 3222, 1299, 1298, 1275
 8688, 4002, 1508, 3884, 1544
 8689, 2093, 2092,  380, 1552
 8690, 3884, 3887, 1509, 1508
 8691, 3751, 3367, 3662, 3319
 8692, 3536, 3545, 1089, 4003
 8693, 3522, 3091, 1435, 1436
 8694, 3884, 1541, 3751, 1685
 8695, 4002, 3884, 1508, 3887
 8696, 4002, 1547,  369, 1544
 8697, 3184, 3897, 3915, 4048
 8698, 3897, 3915, 4141, 4132
 8699, 4206,  228,  299, 1337
 8700, 3000, 1885, 3258, 3259
 8701, 3470, 1083, 3820, 3595
 8702, 3621, 3376, 1069, 1042
 8703, 3251, 1302, 1301, 1278
 8704, 1148, 1599, 1149, 4115
 8705, 4007, 1280, 1303, 1279
 8706, 3590, 3326, 3594, 3321
 8707, 3250, 1302, 1278, 1279
 8708, 3590, 3651, 3595, 3597
 8709, 4038, 1664, 1612, 1608
 8710, 4088, 1324, 1300, 1301
 8711, 3684, 3373, 3346, 3347
 8712, 4082, 4112, 1255, 1279
 8713, 1145, 3385, 4018, 3863
 8714, 3593, 3594, 3595, 4159
 8715, 3122, 1389, 3097, 1413
 8716, 3840, 1387, 3567, 1363
 8717, 3925, 3926, 1558, 2091
 8718, 2966, 1138, 1137, 1111
 8719, 3338, 1305, 1304, 1281
 8720, 4054, 4055, 2089, 4209
 8721, 2089, 4054, 2090, 4055
 8722, 4054, 1568, 4092, 4209
 8723, 3482, 1360, 4106, 3481
 8724, 4124, 4129, 1329, 1305
 8725, 3925, 3926, 1628, 1558
 8726, 3653, 4082, 3338, 4005
 8727, 4199, 3819, 1284, 1308
 8728, 3809, 4024, 1744, 4152
 8729, 3321, 1283, 1306, 1282
 8730,  378, 2090, 1562, 1558
 8731, 3823, 1600, 1604, 1631
 8732, 1553, 1627, 3467, 3466
 8733, 3822, 3755, 3301, 3302
 8734, 3025, 3409, 3344, 3585
 8735, 2090, 1562, 1558, 4054
 8736, 4166, 1624, 1540, 1683
 8737, 4054, 4092, 1568, 1632
 8738, 3465, 4129, 3596, 3651
 8739, 3337, 1286, 1309, 1285
 8740, 1330, 1604, 1606, 3824
 8741, 3773, 4155, 4017, 3777
 8742, 3776, 3972, 3774, 1501
 8743, 3776, 1500, 3784, 3972
 8744, 3776, 3972, 1501, 1500
 8745, 4192, 1287, 1310, 1286
 8746, 1331, 3466, 1610, 1332
 8747, 4017, 3972, 3776, 3784
 8748, 3773, 3777, 1524, 1601
 8749, 3378, 1763,  195, 1766
 8750, 3378, 3381, 1191, 1766
 8751, 4192, 1287, 4189, 4190
 8752, 4122, 1133, 1556,  225
 8753, 3379, 3380, 3868, 3871
 8754, 3869, 3868, 3873, 1822
 8755, 4192, 4120, 4134, 1311
 8756, 3873, 3872, 1822, 1188
 8757, 4091, 1106, 4161, 1107
 8758, 4206, 1130,  228, 1337
 8759, 3378, 1191, 3381, 3382
 8760,  267, 1822, 1189, 1825
 8761, 1553, 1136,  222, 1551
 8762, 4190, 1312, 1311, 1288
 8763, 4121, 1312, 1313, 1336
 8764, 4198, 1289, 1312, 1288
 8765, 3481, 3485, 1361, 1359
 8766, 3486, 1482, 3485, 3484
 8767, 3477, 3967, 3485, 3483
 8768, 3485, 3482, 1361, 1537
 8769, 1335, 4120, 4134, 4122
 8770, 1313, 1290, 1289, 1103
 8771, 4194, 4181, 1028, 4075
 8772, 1127, 3670, 3117, 1341
 8773, 4198, 1313, 1312, 1289
 8774, 4119, 4206, 4121, 1131
 8775, 1536,  322,  323, 1360
 8776, 4078, 1001, 4075, 1028
 8777, 1338, 1315, 1314, 1128
 8778, 4194, 1027, 4186, 4164
 8779, 4078, 3870, 1000, 4164
 8780, 3802, 4148, 4146, 3721
 8781, 3721, 4148, 4072, 3645
 8782, 1954, 4148, 4072, 3721
 8783, 1314, 1290, 1313, 1103
 8784, 1338, 1129, 1128, 1314
 8785, 3667, 1317, 1316, 1293
 8786, 4148, 3998, 1955, 4072
 8787, 1315, 1314, 1128, 1101
 8788, 4213, 4227, 4225, 2039
 8789, 4219, 1985, 4221, 1986
 8790, 3667, 1293, 3665, 1294
 8791, 3978, 1320, 1296, 1297
 8792, 1316, 1315, 1101, 1292
 8793, 1316, 1315, 1128, 1101
 8794, 3667, 1294, 1317, 1293
 8795, 1340, 1127, 1317, 1316
 8796, 4219, 4224, 4221, 1985
 8797, 1317, 1100, 1316, 1127
 8798, 4137, 4224, 4139, 3807
 8799, 1340, 1316, 1128, 1127
 8800, 3668, 1295, 1318, 1294
 8801, 4221, 4224, 4222, 3804
 8802, 1340, 1339, 1128, 1316
 8803, 3121, 3088, 3522, 3087
 8804, 4219, 4220, 4222, 4218
 8805, 3081, 3539, 3442, 3443
 8806, 3531, 1685, 1696, 1708
 8807, 1317, 1341, 1318, 3670
 8808, 3199, 3520, 3041, 3495
 8809, 3421, 1319, 1320, 1343
 8810, 3875, 3046, 4050, 3254
 8811, 3875, 1694, 4050, 3827
 8812, 3140, 3057, 3143, 3332
 8813, 3367, 3662, 3531, 1685
 8814, 4119, 1560, 4122, 1335
 8815, 4135, 1333, 1332, 1309
 8816, 4089, 3476, 1358, 1356
 8817, 3477, 3103, 3228, 3104
 8818, 3978, 1320, 1297, 1321
 8819, 3221, 3104, 3476, 3228
 8820, 1299, 3223, 3221, 4089
 8821, 3531, 3107, 1708, 1699
 8822, 3978, 1321, 1298, 1322
 8823, 3228, 1356, 4089, 3223
 8824, 4089, 3223,  286, 1299
 8825, 4089, 3476, 3221, 3979
 8826, 4089, 1358,  287,  286
 8827, 4089, 1356, 1358,  286
 8828,  299, 1338, 1337,  228
 8829, 4227, 4226, 4175, 4167
 8830, 2974, 3107, 1699, 1663
 8831, 1606, 1330, 1331,  306
 8832, 3652, 4113, 4006, 1085
 8833, 4137, 4222, 4223, 4224
 8834, 4176, 4137, 4224, 4139
 8835, 3565, 1351, 1353, 1350
 8836, 4176, 4137, 4223, 4224
 8837, 3603, 3222, 3602, 1251
 8838, 3222, 1250, 3602, 1251
 8839, 4225, 4218, 4226, 4215
 8840, 3300, 3211, 3298, 3209
 8841, 3904, 3782, 4117, 1173
 8842, 4123, 3830, 1032, 4015
 8843, 3297, 4173, 1036, 3243
 8844, 3297, 3298, 1035, 1062
 8845, 3298, 4040, 1034, 1061
 8846, 3298, 1008, 3360, 1035
 8847, 3488, 3904, 3377, 4094
 8848, 1154, 1300, 1149,  247
 8849, 3388, 1147, 3968, 1598
 8850, 3160, 1664, 1608, 1667
 8851, 1599, 1324,  312,  245
 8852, 1669, 3823, 3754, 4125
 8853,  312,  245, 1324,   19
 8854, 4003, 3297, 1062, 3298
 8855, 3298, 1062, 4040, 1061
 8856, 3297, 1062, 1035, 1036
 8857, 3503, 3508, 3953, 3514
 8858, 3650, 1325, 1302, 1326
 8859, 3387, 3385, 1152, 1147
 8860, 3713,  959, 3514,  958
 8861, 3881, 3883, 1707, 1712
 8862,  182,  958, 1788, 1792
 8863, 3312, 1499, 1523, 1498
 8864, 3881, 1714, 3882, 1712
 8865, 3713, 3836, 3515, 3838
 8866, 3713, 3836, 1854, 3515
 8867, 2973, 3881, 3531, 3882
 8868, 3503, 3713, 3515, 3514
 8869, 3754, 1602, 1667, 1608
 8870, 4129, 1306, 1329, 1305
 8871, 3713, 3515, 1854, 1851
 8872, 1602, 1328,  308,  309
 8873, 3258, 4133, 1886, 1844
 8874, 4160, 3820, 1082, 4159
 8875, 4124, 1328, 1305, 1329
 8876, 4162, 4010, 3468, 4135
 8877, 4135, 1309, 1332, 1308
 8878, 3467, 1553, 1136, 1137
 8879, 1604, 1329, 1330,  307
 8880, 4199, 4193, 1284, 4187
 8881, 3469, 3593, 3470, 3820
 8882, 1331, 1606, 1610, 3464
 8883, 4138, 3995, 4170, 1426
 8884, 4012, 4135, 4093, 1333
 8885, 4030, 3880,  411, 3896
 8886, 4138, 1402, 4137, 3807
 8887, 4137, 1402, 4138, 1426
 8888, 4012,  302,  303, 1334
 8889, 3402, 3200, 3397, 3403
 8890, 4093, 1310, 1333, 1309
 8891, 3941, 2026, 3494, 3495
 8892, 3942, 3294, 3494, 2027
 8893, 4134, 1311, 1334, 1310
 8894, 4028, 4029, 3504, 1848
 8895, 3885, 3844, 1831, 1765
 8896, 4033, 3843, 3899, 3956
 8897, 4022, 4140, 1479, 1455
 8898, 4119, 1570, 1560,  301
 8899, 3885,  975, 3844, 1765
 8900, 4012, 4093, 4134, 1334
 8901, 3841, 1003, 3657, 1002
 8902, 3634, 3630, 1950, 1951
 8903, 4120, 1312, 1335, 1311
 8904, 3948, 3654, 3635, 1922
 8905, 3633, 3634, 3719, 3630
 8906, 4134, 1335, 1334, 1311
 8907, 3634, 1789, 3720, 1924
 8908, 4196, 1976, 3639, 3949
 8909, 4120, 1336, 1335, 1312
 8910,  181,  957, 1792, 1796
 8911, 3836,  960, 4145, 3834
 8912, 1546,  291, 1346,  290
 8913, 3836, 3838,  959,  960
 8914,  296,  297,  230, 1340
 8915, 4119, 1335, 4120, 1336
 8916, 4119, 4206,  300, 1336
 8917, 1339, 1315, 1338, 1128
 8918, 1340, 1339,  230, 1128
 8919, 3834, 3837, 4145, 3836
 8920, 3836, 4145, 1859, 3837
 8921, 1130, 1314, 1338, 1337
 8922, 4064, 1338,  298,  229
 8923, 3537, 3836, 3515, 3837
 8924, 3836, 3837, 1859, 1854
 8925,  296,  231, 1340,  230
 8926, 3543, 1142, 3933, 3530
 8927, 3543, 1577, 3933, 1142
 8928, 4064,  230, 1339, 1128
 8929, 1341, 1340, 1127, 1317
 8930, 3669, 1342, 1319, 1343
 8931, 3864, 3543, 3529, 1581
 8932, 3670, 3669, 1342, 1318
 8933, 3749, 3290,  409,  408
 8934, 4201, 1340,  296,  231
 8935, 1638, 1577, 3544, 3543
 8936,  297, 1340, 1339,  230
 8937, 3856, 1656, 1691, 1689
 8938, 4201, 1340,  231, 1127
 8939, 3669, 1319, 1342, 1318
 8940, 3117, 1530,  232, 1533
 8941, 3543, 3384, 1638, 1640
 8942, 2972, 3318, 3257, 3128
 8943, 3808, 1930, 1758, 3803
 8944,  287, 4107, 1360, 1358
 8945, 4206,  300,  299,  227
 8946, 1465, 1490, 1466, 2047
 8947, 3825, 1344, 1321, 1345
 8948, 4138, 3807, 4139, 4074
 8949, 4090, 4230, 4107, 4106
 8950, 4074, 4138, 1402, 3794
 8951, 3808, 1830, 3796, 1818
 8952, 3808, 4073, 1760, 1930
 8953, 3977, 1345, 1322, 1346
 8954, 3803, 1758, 3808, 1818
 8955, 3984, 4039,  386, 2098
 8956, 3808, 4071, 3799, 1830
 8957, 4074, 3806, 3808, 3807
 8958, 4127, 3052, 1716, 1717
 8959, 4230, 1346, 1347,  290
 8960, 3799, 4071, 3808, 4073
 8961, 3806, 1957, 4073, 1930
 8962, 2999, 1885, 3258, 3000
 8963, 3799, 4074, 3796, 3794
 8964, 4074, 3796, 3794, 1378
 8965, 3799, 3795, 1832, 3981
 8966, 4090, 1546, 1548, 1655
 8967, 3262, 3051, 4141, 1719
 8968, 4022, 1454, 3703, 1455
 8969, 1929, 4073, 1760, 1764
 8970,  170, 3877,  956, 4032
 8971, 3223, 1355, 1357, 1354
 8972, 3537, 3836, 3834, 3838
 8973, 4145,  961, 3834,  960
 8974, 4151, 1861, 3951, 1773
 8975, 1773, 4145, 4151, 1861
 8976, 4230, 1347,  288,  289
 8977, 4145, 3834,  961, 4151
 8978, 3835, 3837, 4145, 3834
 8979, 4145, 1859, 3835, 1861
 8980, 4043, 3792, 1943, 1944
 8981, 4043, 3929, 3792, 1944
 8982, 1599,  312, 1325,  311
 8983, 4043, 1944,  416, 1782
 8984, 3754, 3649, 1327, 1608
 8985, 1608,  310, 1326, 1327
 8986,  416, 4043, 1943, 1944
 8987, 4043, 4067, 3929, 1782
 8988, 3788, 1860, 1778, 3789
 8989, 3929, 4067, 4043, 3792
 8990, 1612,  311, 1326,  310
 8991, 1858, 1860, 1778, 3788
 8992, 2991, 3099, 3127, 3098
 8993, 3072, 3753, 3964, 3959
 8994, 1608,  310, 1327,  309
 8995, 1602, 1600,  308, 1328
 8996, 3939, 1476, 1501, 1500
 8997, 3072, 3700, 3753, 3959
 8998, 3679, 3678, 3677, 1903
 8999, 3081, 3139, 3620, 3429
 9000, 3679, 1903, 3075, 1920
 9001, 3753, 3342, 4098, 1912
 9002, 3755, 1112, 3301, 1139
 9003, 3470, 2966, 1137, 3597
 9004, 3468, 1308, 1332, 1331
 9005, 3465, 4182, 3596, 3822
 9006, 3822, 3755, 3302, 3821
 9007, 1138, 3821, 1139, 3755
 9008, 3258, 4099, 4133, 3052
 9009, 1332, 3466, 1610,  304
 9010, 3755, 1111, 4182, 1112
 9011, 3465, 3822, 3755, 4182
 9012, 1508,  369, 4002, 1507
 9013, 4055, 2062, 4156, 2063
 9014, 4128,  400, 1735, 1596
 9015, 4119,  300,  301, 1336
 9016, 3761, 1621, 4128, 1672
 9017, 3761, 1734, 4128, 1621
 9018, 3462, 3885, 3340, 3843
 9019, 4119,  301, 1335, 1336
 9020, 3457, 3957, 1835, 1833
 9021, 3456, 3339, 3457, 3900
 9022, 3462, 3455, 3340, 3457
 9023, 3462, 3956, 3458, 3370
 9024, 4206,  300, 1336, 1337
 9025, 3746, 2107, 4051, 3345
 9026,  395, 2107, 1576, 1580
 9027, 2107, 1576, 1580, 3746
 9028, 4047, 4051, 3746, 2106
 9029, 3746, 3826, 1657, 3434
 9030, 3946, 3434, 3746, 3433
 9031, 3746, 3434, 1657, 1654
 9032, 4120, 4121, 1336, 1312
 9033, 1545,  291,  292, 1345
 9034, 4198, 4190, 1288, 1312
 9035, 4198, 4190, 1104, 1077
 9036, 4064,  230,  297, 1339
 9037, 4189, 4198, 4190, 1288
 9038, 3369, 3483, 4002, 3105
 9039, 3486, 3483, 3369, 3477
 9040, 1534,  294, 1343,  293
 9041, 3476, 3484, 3487, 3477
 9042, 1483, 3095, 3483, 3887
 9043, 1540,  292,  293, 1344
 9044, 3486, 1483, 3483, 1482
 9045, 3486, 3483, 1483, 3095
 9046, 3967, 1626, 3483, 3105
 9047, 1545,  292, 1344, 1345
 9048, 3540, 1702, 3141, 3813
 9049, 3483, 3105, 1626, 1547
 9050, 3188, 3262,  409, 3749
 9051, 1342, 4203, 1341,  295
 9052, 3188, 3189, 1725, 3680
 9053, 1540, 1344,  293, 1343
 9054, 3620, 1096, 1069, 1070
 9055, 3189, 3748,  407, 3446
 9056, 3189, 1728, 3451, 3446
 9057, 3258, 4099, 1886, 4133
 9058, 3261, 3054, 3000, 3642
 9059, 2999, 1806, 3641, 1844
 9060, 3761, 4142, 1621, 1652
 9061, 3258, 2997, 3642, 3618
 9062, 3000, 2997, 2998, 3642
 9063, 3549, 2997, 2999, 3641
 9064, 3549, 1806, 2999, 1807
 9065, 3622,  169, 1873, 1890
 9066, 3000, 3877, 3643, 4031
 9067, 3795, 1814, 3796, 1832
 9068, 3799, 1832, 3795, 3796
 9069, 3795, 1834, 3982, 1812
 9070, 3446,  406,  405, 3769
 9071, 1810, 3797, 3982, 1381
 9072, 3795, 3981, 1834, 1832
 9073, 4230,  290, 1347,  289
 9074, 1381, 3797, 3982, 1380
 9075, 3115, 3627, 3769, 3065
 9076, 3451, 3446, 1728, 1731
 9077, 3183, 3188, 3749, 3262
 9078, 1566, 1659, 3826, 3581
 9079, 3705, 2104, 3580, 2105
 9080, 3583, 1678, 1681, 1672
 9081, 3705, 2105, 3580, 3581
 9082, 1361,  322,   24, 1537
 9083, 3705, 3973, 3791, 1660
 9084, 3705, 3791, 1563, 1660
 9085, 3705, 4050, 1660, 1659
 9086, 3705, 3973, 4050, 3580
 9087, 3997, 1452, 1428, 1453
 9088, 3569, 1754, 1752, 1857
 9089, 3317, 3212, 3145, 3093
 9090, 4211, 1748, 1747,  313
 9091, 3940, 1435, 3091, 1459
 9092, 3316, 3256, 3888, 3662
 9093, 3564, 1350,  282, 1348
 9094, 3860, 3886, 3096, 1485
 9095, 3787, 3886, 3860, 1485
 9096, 3676, 3678, 1903, 3677
 9097, 4211,   21,  282, 1203
 9098, 1755,  315, 1349,  314
 9099, 4149, 1754, 1748, 1203
 9100, 3571, 3568,  315, 1362
 9101, 4211,  314, 1349,  313
 9102, 3144, 3150, 3152, 1487
 9103, 3148, 3150, 3366, 3966
 9104, 3315, 3662, 3751, 3364
 9105, 3787, 3860, 3145, 1485
 9106, 4211, 4149, 3571, 1747
 9107, 4188, 4183, 3848, 1170
 9108, 4076, 1235, 4158, 4200
 9109, 3563, 1350, 1352,  283
 9110, 3591, 3656, 3594, 3326
 9111, 3593, 1283, 4187, 3819
 9112, 3571, 1349, 1755,  315
 9113, 3658, 3656, 4075, 4181
 9114, 3286, 3658, 4181, 3656
 9115, 4124, 3823, 1328, 1329
 9116, 1633, 4125, 1631, 1669
 9117, 1755, 1362,   23,  324
 9118, 4125, 1631, 1669, 3823
 9119, 3568,  316, 1349,  315
 9120, 3823, 3824, 1604, 1329
 9121, 3823, 3824, 1631, 1604
 9122, 3246, 3118, 1224, 1248
 9123, 3624, 3246, 1248, 3118
 9124, 3246, 3663, 1224, 3118
 9125, 2931, 2933, 3660, 3663
 9126, 3086, 3094, 3095, 3096
 9127, 3090, 3103, 3089, 3094
 9128, 2931, 3246, 3118, 3663
 9129, 3223, 1356,  286,  285
 9130, 3604, 1386, 1410,  316
 9131, 3554, 3562, 1226, 3660
 9132, 3229, 3675, 3689, 3604
 9133, 3561, 1203, 3562, 3569
 9134, 2932, 3709, 3076, 2937
 9135, 3604, 1410, 1434,  317
 9136, 3562, 1251, 1250, 1227
 9137, 2936, 3246, 3554, 4065
 9138, 4149, 1203, 3569, 1754
 9139, 3568, 1351, 1349,  316
 9140, 3554, 3660, 1226, 1225
 9141, 4192, 4120, 1105, 4134
 9142, 4192, 4120, 1311, 4190
 9143, 4192, 1078, 3334, 1079
 9144, 4192, 3334, 1078, 4189
 9145, 3497, 3876, 3500, 3508
 9146, 3509, 3507, 3950, 3876
 9147, 3282, 4036, 1973, 3492
 9148, 3876, 3498, 3738, 3502
 9149, 3741, 3738, 3739, 3737
 9150, 3501, 1948, 3880, 1975
 9151, 3689, 1434, 1458,  318
 9152, 3506, 4036, 4029, 3501
 9153, 3675, 3604, 1410, 1434
 9154, 3306, 3285, 3430, 3432
 9155, 3284, 3501, 3880, 1975
 9156, 3668, 3523, 3670, 3669
 9157, 3568, 1353, 1351,  317
 9158, 3668, 3669, 3670, 1318
 9159, 3667, 3666, 3665, 1072
 9160, 3666, 3665, 1072, 1071
 9161, 3476, 1359, 1358, 1356
 9162, 3012, 3033, 3548, 3828
 9163, 3828, 3027, 3832, 3528
 9164, 3027, 1269, 3589, 3026
 9165, 4107, 1347, 1323,  287
 9166, 3689, 1434, 3940, 1458
 9167, 3223,  285, 1299, 1275
 9168, 3528, 3027, 3267, 3828
 9169, 3979, 1323, 1322, 1299
 9170, 3081, 3442, 3539, 3620
 9171, 3027, 3026, 3589, 3665
 9172, 4107, 1323, 1346, 3979
 9173, 1818,  340, 1378,  339
 9174, 3027, 3828, 1018, 1017
 9175, 3785, 1498, 1474, 1499
 9176, 3925, 2091, 3923, 3926
 9177, 3603, 3223,  285, 1354
 9178, 3314, 4054, 3925, 1630
 9179, 4016, 4156, 2036, 4084
 9180, 4089, 1323, 3476, 3979
 9181, 4230, 4107,  288, 1347
 9182, 4156, 3923, 2064, 2037
 9183, 2064, 4156, 4055, 3923
 9184, 3977, 1322, 3979, 1346
 9185, 4156, 2037, 4084, 3923
 9186, 3988, 3785, 3939, 3784
 9187, 3988, 4168, 4016, 4156
 9188, 2035, 4156, 4016, 4168
 9189, 4168, 2035, 4156, 2062
 9190, 4089,  286, 1323, 1299
 9191, 3576, 1895, 3575, 3517
 9192, 4168, 4156, 4209, 2062
 9193, 3567, 1386, 3568, 1362
 9194, 3689,  318,  319, 1355
 9195, 3442, 3859, 3856, 3443
 9196, 3484,  319,  320, 1357
 9197, 4131, 3351, 1661, 1564
 9198, 4131, 1123, 3352, 1124
 9199, 4089, 3979, 3221, 1299
 9200, 4131, 1661, 3351, 3398
 9201, 4131, 3399, 1658, 1661
 9202, 4131, 3351, 3352, 3398
 9203, 3584, 3235, 1996, 1997
 9204, 3563, 3562, 1227, 1251
 9205, 3951,  186, 1771,  962
 9206, 4107,  287,  288, 1347
 9207, 3951, 1771,  186, 1773
 9208, 3104, 3105, 4106, 3482
 9209, 3485,  320, 1482, 1506
 9210, 3101, 3977, 3979, 4107
 9211, 3983, 1517, 1518,  359
 9212, 3951, 3241, 1863, 3239
 9213, 3274, 3266, 3276, 3408
 9214, 4230, 1543, 1548,  289
 9215, 1773, 4145,  961, 4151
 9216, 3951, 1863, 3241, 1771
 9217, 3440, 3745, 3854, 3744
 9218, 3395, 3396, 3969, 1648
 9219, 3104, 3105, 3106, 1655
 9220, 3628, 3219, 1651, 3433
 9221, 3967,  370, 1506, 1507
 9222,  323, 1360,  288, 1543
 9223, 3108, 3114, 2979, 3065
 9224, 3392, 3390, 3112, 3200
 9225, 4194, 4076, 4193, 4187
 9226, 4199, 4162, 3468, 4135
 9227, 4160, 3819, 4162, 3820
 9228, 4076, 4193, 4187, 1260
 9229, 4208, 2043, 4210, 2044
 9230, 3485,  320,  321, 1359
 9231, 4193, 4186, 3335, 3336
 9232, 3110, 3112, 3396, 3116
 9233, 3112, 2983, 3389, 3108
 9234, 1587, 3116, 1589, 3110
 9235, 4089,  286,  287, 1323
 9236, 3110, 3396, 1641, 1587
 9237, 1641, 1642, 1648, 3396
 9238, 3110, 3920, 1589, 1680
 9239, 3110, 3114, 1680, 1642
 9240, 4097, 2043, 2069, 2042
 9241, 3775, 4208, 4210, 1469
 9242, 4208, 4210, 1469, 1468
 9243, 4097, 2043, 3775, 4208
 9244, 4208, 2071, 2044, 1492
 9245, 3148, 3365, 3973, 3364
 9246, 3047, 1490, 1466, 1491
 9247, 4095, 2071, 4208, 1492
 9248, 1509,  368, 3884, 1508
 9249, 3565, 1350, 1353, 1352
 9250, 4208, 1492, 1468, 1493
 9251, 4039,  362,  387, 1515
 9252, 1753, 1363,  324,  325
 9253, 3984, 1623,  386,  361
 9254, 4039, 1515, 2098, 1516
 9255, 4039, 1515,  361,  362
 9256,  326, 1364, 1750, 1751
 9257, 2093, 1552, 3911, 3913
 9258, 3566, 1411, 1386, 1387
 9259, 4039, 2099, 1515,  387
 9260, 3674, 1411, 3675, 3566
 9261, 4052, 1856, 1751, 1753
 9262, 1755,   23, 1362,  315
 9263, 3431, 3553, 3792, 3930
 9264, 4039, 2099,  386, 2098
 9265, 3789, 3788, 4043, 1778
 9266, 3761, 1672, 4128, 3578
 9267, 3445, 3758, 3736, 3446
 9268, 1363,  325, 4052, 1364
 9269, 3757,  405, 3761, 4142
 9270, 4211,  313,   21, 1748
 9271, 4044, 4045, 4202, 3410
 9272,  262, 1184, 1809, 1811
 9273, 3911, 1617, 1550, 1555
 9274, 1395, 1396, 1937, 1963
 9275, 3901, 1184, 3898, 3902
 9276, 3674, 1412, 1411, 1387
 9277, 3208, 3211, 3683, 3210
 9278, 3686, 3901, 3902, 1811
 9279, 3328, 1993, 1966, 1967
 9280, 3901, 3898, 1184, 1185
 9281, 3541,  327, 1366, 1365
 9282, 3006, 3048, 3322, 3323
 9283, 3682, 3625, 3373, 3460
 9284, 3341, 3063, 3281, 4009
 9285, 3456, 3957, 3901, 1835
 9286, 3901, 3898, 1185, 3957
 9287, 4207,  330,  329, 1738
 9288, 3901, 3957, 1809, 1835
 9289, 3543, 3529, 1581, 1142
 9290, 3933, 3530, 1142, 1141
 9291, 3933, 1573,  217, 1577
 9292, 3933, 1573, 1141,  217
 9293, 3135, 1917, 4098, 3342
 9294, 1750,  327, 1365,  326
 9295, 4004, 3932, 4125, 3530
 9296, 3246, 1248, 1224, 1225
 9297, 3161, 3530, 3534, 3529
 9298, 3301, 3933, 1141, 3530
 9299, 3231, 3233, 2023, 2024
 9300, 3716, 1901, 1891, 1893
 9301, 3933, 4125, 3301, 1573
 9302, 3933, 1635, 4125, 1573
 9303, 3933, 3544, 4125, 1635
 9304, 3683, 3210,  980, 3687
 9305, 3846, 3683, 3210,  980
 9306, 3541, 1365, 1750,  327
 9307, 3541, 1366,  327,  328
 9308, 3339, 3687,  979, 1781
 9309, 3124, 1365, 1390, 1389
 9310, 3960, 1767, 3961, 1374
 9311, 1366,  328, 3410, 1367
 9312, 3687, 3339, 3682, 3900
 9313, 3136, 3278, 3280, 3015
 9314, 3687, 3683,  979,  980
 9315, 3124, 3410, 3412, 1366
 9316, 3790, 1897, 3344, 3489
 9317,  979, 1786, 1781, 3687
 9318, 1841, 3685, 1786, 3210
 9319, 1741, 1367,  328,  329
 9320, 3584, 1970, 3553, 1997
 9321, 3682, 3685, 3687, 3900
 9322, 4207,  330, 1369, 1368
 9323, 3412, 1367, 1391, 1366
 9324, 3391, 3493, 3628, 3397
 9325, 3627, 3748, 2056, 3750
 9326, 3928, 3292, 2056, 2055
 9327, 3927, 3292, 2028, 3294
 9328, 4202, 3412, 3410, 1367
 9329, 1367, 3412, 1391, 4046
 9330, 3927, 2027, 3494, 3294
 9331, 3789, 3792, 1970, 1943
 9332, 3743, 3928, 3291, 3750
 9333, 3265, 3813, 3263, 1704
 9334, 3112, 3397, 3628, 3395
 9335, 3291, 3928, 3292, 3750
 9336, 3960, 3963,  335, 1373
 9337, 3742, 3743, 3853, 3739
 9338, 3125, 1364, 1389, 1388
 9339, 3760, 4035, 1593, 4118
 9340, 3760,  178, 1593,  954
 9341, 3760, 1593,  178, 1620
 9342, 4063, 1740,  420,  421
 9343, 4207, 1369,  330,  331
 9344, 3760, 4118, 1593, 1671
 9345, 3760, 3579, 1622,  955
 9346,  954,  955, 3735, 3760
 9347, 3439, 3853, 3478, 1038
 9348, 3744, 3439, 1065, 3853
 9349, 3493, 3628, 3908, 3433
 9350, 2960, 3139, 2956, 3085
 9351, 3431, 3788, 3348, 4067
 9352, 3438, 3436, 1067, 3441
 9353, 3432, 3430, 3929, 3492
 9354, 3124, 3410, 3069, 3412
 9355, 3097, 1391, 1415, 1390
 9356, 1938, 1937, 1395, 1371
 9357,  422,  332, 1370,  331
 9358, 4087, 3999, 1963, 1962
 9359, 3348, 3575, 3576, 3788
 9360, 3576, 3575, 1895, 3788
 9361, 3635, 1840, 3636, 3720
 9362, 3635, 1911, 4102, 1876
 9363, 3638,  703, 3639,  696
 9364, 3635, 3640, 3638, 3629
 9365, 3629,  696, 3639, 3616
 9366, 3024, 3344, 3790, 4053
 9367, 3638, 4197,  703,  702
 9368, 3961, 3962, 3805, 1933
 9369, 3638,  695, 4102, 1911
 9370, 3937,  332,  333, 1371
 9371, 3948, 3654, 1922, 4197
 9372, 3570, 1856, 1753, 1887
 9373, 4056, 1422, 1423, 1447
 9374, 3948, 3635, 1923, 1922
 9375, 3638,  702, 3654, 4197
 9376, 4213, 4227, 4214, 4215
 9377, 4176, 4229, 4225, 4223
 9378, 4163, 2093, 1552, 2092
 9379, 3844,  199, 1765,  975
 9380, 3911, 1617, 3914, 3310
 9381, 3938,  334, 1372,  333
 9382, 4227, 2066, 3913, 4163
 9383, 1376,  338, 3049, 1820
 9384, 4227, 4167, 2065, 4163
 9385, 4227, 4167, 2038, 2065
 9386, 3963,  334, 1373, 1372
 9387, 1992, 1393, 1966, 1394
 9388, 3161, 3932, 3530, 3933
 9389, 3159, 3649, 3650, 3648
 9390, 3383, 3158, 3385, 3384
 9391, 3161, 1638, 3160, 3544
 9392, 3960, 1374, 1373,  335
 9393, 3384, 1646, 3160, 1638
 9394, 4166, 4068, 1624, 3407
 9395, 4108, 1698, 4166, 1545
 9396, 4000, 1397, 1373, 1398
 9397, 3049, 3805, 1757, 1762
 9398, 4166, 1683, 3407, 1624
 9399, 3963,  334,  335, 1373
 9400, 1396, 1937, 1963, 1936
 9401, 3274, 3825, 3421, 3422
 9402, 3274, 3825, 4166, 3421
 9403, 4166, 3421, 1344, 1343
 9404, 4108, 4166, 1344, 1545
 9405, 3960,  336, 1374,  335
 9406, 4166, 1698, 4109, 1683
 9407, 3562, 1250, 3602, 4065
 9408, 1203, 4149, 3561, 3564
 9409, 3562, 1202, 3660, 3569
 9410, 3080, 1749, 1200,  278
 9411,  336, 1374, 1375, 1767
 9412, 1757, 3803, 1931, 3805
 9413, 3049, 1376, 1375,  337
 9414, 3080, 1746, 1749,  278
 9415, 3080, 3663, 1749, 2933
 9416, 3168, 3080, 1199, 4013
 9417, 3168, 1199, 3080, 1200
 9418, 4013, 1883, 1829, 4019
 9419, 1746, 1883, 1829, 4013
 9420, 3806, 1931, 1957, 1930
 9421, 4221, 1960, 3050, 4231
 9422, 4137, 1401, 4222, 3804
 9423, 4220, 3050, 4221, 3804
 9424, 4220, 4056, 1987, 4231
 9425, 4220, 1422, 4056, 4231
 9426, 4220, 4056, 1422, 1423
 9427, 4219, 4220, 4218, 4056
 9428, 3899, 3462, 3843, 3957
 9429, 3645, 3721, 1927, 4072
 9430, 4071, 3808, 1764, 1830
 9431, 1830, 4071, 3799, 1832
 9432, 3049,  338, 1376,  337
 9433, 4074, 4100, 4138, 3998
 9434, 3873, 4077, 1212, 1213
 9435, 4137, 1401, 1402, 1426
 9436, 1768, 1928, 1764, 3981
 9437, 3645, 1927, 1768, 3981
 9438, 3974, 3117, 4203, 1538
 9439, 3803, 1377, 1376, 1820
 9440, 3975, 3351, 1676, 3398
 9441, 3975, 1624, 4068, 3407
 9442, 3975, 1534, 4068, 1624
 9443, 4220, 1400, 1424, 1399
 9444, 4203, 1534, 3975, 1538
 9445, 3121, 3122, 3127, 3706
 9446, 3120, 3678, 3676, 3677
 9447, 3123, 3727, 3126, 3125
 9448, 3035, 3123, 3125, 3122
 9449, 1818,  339, 1377, 1820
 9450, 1377,  339,  338, 1820
 9451, 3120, 3679, 3678, 3677
 9452, 1186, 3899, 3957, 1185
 9453, 4057, 1988, 3855, 1989
 9454, 3805, 4221, 4224, 1958
 9455, 3775, 1470, 1445, 1446
 9456, 4057, 4228, 1445, 4210
 9457, 4057, 4228, 4210, 2016
 9458, 4057, 3775, 2016, 4210
 9459, 3958, 1813, 1833, 1815
 9460, 3317, 3149, 3212, 2994
 9461, 3144, 3146, 3150, 1463
 9462, 3255, 3254, 3875, 4143
 9463, 1378,  340, 3796, 1379
 9464, 4176, 4137, 4229, 4223
 9465, 3146, 3212, 1438, 1462
 9466, 1379,  341,  340, 1814
 9467, 2914, 2913, 2909, 2938
 9468, 2050, 3234, 3366, 3233
 9469, 3234, 2022, 3236, 3235
 9470, 3885, 1831, 3958, 1833
 9471, 4033, 4179, 3872, 3869
 9472, 3948, 3638, 3635, 3654
 9473, 4033, 3844, 3869, 1819
 9474, 3844, 1761, 3869, 1819
 9475, 1812,  342, 1380,  341
 9476, 3844, 3869, 1761,  974
 9477, 4033, 4158, 3956, 1211
 9478, 3297, 1036, 4173, 1063
 9479, 4136,  211, 1160, 1155
 9480, 1952, 3694, 1979, 1953
 9481, 1808,  343, 1381,  342
 9482, 3998, 4100, 3995, 4037
 9483, 4136, 4173, 3243, 1160
 9484, 1911,   99,  695, 4102
 9485, 4173, 1165,  210,  209
 9486, 4229, 1426, 4170, 1450
 9487, 4188, 1165, 4173,  209
 9488, 4188, 3243, 4173, 1165
 9489, 4173, 1165, 1160,  210
 9490, 3335, 4186, 1052, 3336
 9491, 4157, 4083, 4186, 4079
 9492, 1519,  357, 1520, 1617
 9493, 4199, 4160, 4162, 4161
 9494, 1812, 1380, 3795,  341
 9495, 4186, 1025, 4164, 1026
 9496, 4194, 4186, 1027, 1054
 9497, 4077, 4078, 4079, 4164
 9498, 4194, 4160, 4159, 4187
 9499, 3699, 4205,  684, 3425
 9500, 4205, 4177, 3425, 3699
 9501, 1874, 1821, 3726, 1866
 9502, 3629, 3948, 3634, 3632
 9503, 3699, 3424, 3425,  691
 9504, 3418, 3702, 4147, 4140
 9505, 3864,  215, 1585, 1581
 9506, 3759, 3583, 1622, 1681
 9507, 3065,  405,  406, 3769
 9508, 3920, 3114, 1652, 1680
 9509, 3761, 1681, 3920, 1652
 9510, 3736, 3445, 3579, 3756
 9511, 3987, 3939, 1475, 1476
 9512, 3779, 3987, 1476, 3939
 9513, 1816, 1383, 1382,  344
 9514, 3994, 4037, 3995, 3992
 9515, 3994, 3991, 3996, 3987
 9516, 3992, 4171, 4170, 3990
 9517, 3991, 3987, 1475, 1451
 9518, 1475, 3991, 1450, 3785
 9519, 4102, 1800, 1846, 1799
 9520, 4104, 1430, 1405, 1406
 9521, 4070,  688,  681,  101
 9522, 4074, 4139, 3806, 3807
 9523, 3636, 1846, 1840, 1876
 9524, 3302, 1573, 1633, 1567
 9525, 3302, 1633, 1631, 1567
 9526, 4137, 3804, 3807, 1401
 9527, 4204, 4023, 1480, 1504
 9528, 4074, 3806, 4139, 4073
 9529, 3807, 3796, 1378, 1818
 9530, 3632, 1950, 3630, 1977
 9531, 3804, 1377, 3803, 3807
 9532, 1376, 3804, 1377, 3803
 9533, 4030, 3896, 1853, 4031
 9534, 1798, 4029, 1795, 1948
 9535, 3608, 2007, 3944, 2034
 9536, 3896, 1853, 4031, 3259
 9537, 4030,   26, 1853,  411
 9538, 3982, 1808, 1834, 1870
 9539, 4030, 1853,   26, 1798
 9540, 4020,  346,  345, 1821
 9541, 4030, 3880, 1948,  411
 9542, 3498, 3738, 3878, 3876
 9543, 3691, 1382, 1383, 1407
 9544, 3499, 4030, 4031, 3896
 9545, 3795, 1832, 1812, 1814
 9546, 1764, 4073, 1760, 3808
 9547, 4138, 3998, 4100, 3995
 9548, 3806, 4224, 3804, 3807
 9549, 4074, 1402, 3807, 1378
 9550, 3799, 1832, 4071, 3981
 9551, 4022, 1455, 1479, 1454
 9552, 3796, 1814,  340, 1818
 9553,  340, 3796, 1379, 1814
 9554, 3040, 3704, 2004, 1977
 9555, 3796, 1379, 3794, 1378
 9556, 3406, 3747, 4101, 3404
 9557, 3406, 3905, 3747, 3436
 9558, 4204,  686,  678,  685
 9559, 3905, 1575, 4101, 1121
 9560, 3905, 3443, 3405, 4103
 9561, 3905, 3747, 3436, 1094
 9562, 3721, 3694, 3719, 1952
 9563, 1952, 3721, 1926, 3719
 9564, 3721, 1780, 3644, 1774
 9565, 4070,  688,  101,  100
 9566, 3719, 3721, 1926, 3718
 9567, 3693, 3694, 3721, 4146
 9568, 4033, 1187, 3872, 1211
 9569, 3872, 4158, 1211, 4200
 9570, 3870, 3868, 3873, 3869
 9571, 3872, 3870, 3869, 4179
 9572, 4105, 1454, 1429, 1430
 9573, 1801,  346, 1385, 4020
 9574, 3893, 3897, 3642, 3918
 9575, 3262, 3260,  410,  409
 9576, 3893, 3916, 3895, 3892
 9577, 3261, 3749, 3183, 3879
 9578, 3916, 3915,  924, 3892
 9579,    7,  347,  674,  102
 9580,  676,   85,   86, 1409
 9581, 3261, 2998, 3879, 3599
 9582, 3261, 3262, 3749, 3260
 9583, 4082, 4041, 3394, 1255
 9584, 3372, 3394, 3347, 3371
 9585, 3682, 3900, 3456, 3686
 9586, 3372, 3374, 4123, 3592
 9587, 3374, 3456, 3370, 3371
 9588, 4199, 4160, 3335, 4193
 9589, 3594, 4187, 4181, 4159
 9590, 3594, 1259, 4187, 1283
 9591, 4076, 3594, 3656, 1259
 9592, 3907, 2102, 1512, 2101
 9593, 3160, 3383, 4038, 1664
 9594, 3655, 3858, 2102, 1512
 9595,  674, 1385,  347,   84
 9596, 3857, 3152, 3365, 3907
 9597, 3907, 3150, 3966, 2076
 9598, 3858, 3966, 3907, 3365
 9599, 3568,  316,  317, 1351
 9600, 3571,  315, 3568, 1349
 9601, 3568, 3604,  317,  316
 9602, 3202, 3207, 3209, 3300
 9603, 4140, 1456, 1455, 1431
 9604, 3203, 3848, 4183, 3847
 9605, 4183, 3203, 3847,  982
 9606, 1577, 3544, 3543, 3933
 9607, 3847, 1803, 3903, 1176
 9608, 3840, 1388, 1363, 1364
 9609, 3847, 1794, 3204, 1877
 9610, 3847, 4165, 1794, 1845
 9611,  328, 3410, 1367, 1741
 9612, 3847, 3206, 1803, 1877
 9613, 3674, 3363, 3547, 3555
 9614, 3124, 1366, 1390, 1365
 9615, 3568, 3604,  316, 1386
 9616, 2931, 3029, 2930, 2936
 9617, 3674, 1388, 1412, 1387
 9618, 3207, 3903, 3305, 3244
 9619, 1436, 1412, 3087, 1437
 9620, 1939, 1369, 1393, 1368
 9621, 1773,  186,  961,  185
 9622, 3676, 1865, 1856, 1899
 9623, 3127, 1437, 1412, 1413
 9624, 4024, 4152,  188, 1744
 9625, 1938, 1370, 1394, 1369
 9626, 4227, 4175, 4225, 2038
 9627, 3097, 1415, 1414, 1390
 9628, 4175, 4225, 4229, 4226
 9629, 1372, 1371, 1396, 1937
 9630, 1938, 1371, 1395, 1370
 9631, 4137, 4229, 1426, 4170
 9632, 4222, 1425, 4218, 1424
 9633, 4229, 1450, 4174, 1449
 9634, 1369, 1394, 1938, 1939
 9635, 4175, 4226, 4229, 4174
 9636, 3412, 1390, 1366, 1391
 9637, 4212, 3310, 4214, 3913
 9638, 3328, 1391, 1392, 1416
 9639, 4213, 4227, 4215, 4225
 9640, 4175, 2011, 4225, 2038
 9641, 4213, 4225, 4215, 4216
 9642, 4213, 2040, 4216, 2041
 9643, 3020, 3410, 3409, 3412
 9644, 4219, 4216, 4056, 4218
 9645, 4227, 4214, 4215, 4226
 9646, 4046, 1939, 1368, 1940
 9647,  394, 2106, 1572, 1576
 9648, 2106, 1572, 1576, 3826
 9649, 3826, 3581, 2106, 2105
 9650, 2105, 3826, 1566, 1572
 9651, 1659, 3705, 3581, 1566
 9652, 3429, 3539, 3441, 1068
 9653, 3746, 1657, 3826, 1576
 9654, 3826, 3827, 1659, 1657
 9655, 3990, 4171, 4084, 3992
 9656, 3990, 4174, 3785, 3786
 9657, 3970, 3972, 3988, 3939
 9658, 1938, 1395, 1394, 1370
 9659, 4016, 2009, 4084, 2036
 9660, 3668, 3423, 2963, 3276
 9661, 3999, 1397, 1396, 1372
 9662, 1443, 2019, 1992, 1418
 9663, 4175, 4084, 2038, 4167
 9664, 3990, 3786, 4167, 4174
 9665, 1398, 3962, 3050, 1374
 9666, 4087, 1421, 1420, 1396
 9667, 3988, 4017, 4092, 3778
 9668, 3963, 3999, 4000, 1935
 9669, 3050, 1376, 1400, 1375
 9670, 3759, 3579, 3583, 3445
 9671, 3444, 3445, 3736, 3446
 9672, 4128, 1621, 1734, 1619
 9673, 4128, 1715, 3578, 1672
 9674, 3763, 3578, 4128, 1715
 9675, 3804, 1377, 1401, 1376
 9676, 3049, 1824, 1762, 1757
 9677, 4220, 1400, 4222, 1424
 9678, 3447, 4128, 1735, 4130
 9679, 3730, 3180, 3735,  952
 9680, 3807, 1378, 1402, 1377
 9681, 4224, 1984, 1957, 1958
 9682, 3730, 3180,  949, 4049
 9683, 3454, 3735, 3452, 3731
 9684, 3794, 1378, 1379, 1403
 9685, 3804, 1401, 1400, 1376
 9686, 3730,  951, 3731,  948
 9687, 1380, 3795,  341, 1379
 9688, 3710, 3711, 3845, 1867
 9689, 3710, 3845, 3711, 3377
 9690, 3797, 1381, 1406, 1405
 9691, 3794, 1426, 1402, 1427
 9692, 3682, 3460, 3339, 3625
 9693, 3794, 1402, 1378, 1403
 9694, 3207, 3346, 3488, 3208
 9695, 3488, 3346, 3473, 3248
 9696, 3488, 3845, 3711, 3206
 9697, 4126,  910, 3734, 3895
 9698, 3894,  942, 3600,  945
 9699, 3617, 3637, 3631, 3701
 9700, 3730,  948, 4126, 4049
 9701, 3600, 4049, 3182, 3894
 9702, 3798, 1404, 1405, 1429
 9703, 3607, 2005, 1979, 2006
 9704, 3729, 3730, 4126, 4049
 9705, 3508, 3507,  983,  984
 9706, 3725, 1868, 1840, 1866
 9707, 4196, 3639, 1976, 1949
 9708, 1427, 3991, 3987, 3996
 9709, 1385,  675,   85,   84
 9710, 3798, 1429, 3996, 1404
 9711, 3508,  983, 3507, 3876
 9712, 3953, 3514, 3508,  958
 9713, 3635, 3720, 3634, 1789
 9714, 3606, 3610, 3607, 2005
 9715, 3741, 3880, 3502, 3498
 9716, 4070, 3640, 3810,  688
 9717, 3953, 3504, 3511, 1849
 9718, 3681, 3915, 3892,  924
 9719, 3681, 3915,  931, 1727
 9720, 3681,  925, 3892, 3732
 9721, 3681, 3892,  925,  924
 9722, 3448, 3681, 3892, 3732
 9723, 3614,  689,  690,  682
 9724, 3915, 4132,  930, 1724
 9725, 4021, 1409, 1408, 1384
 9726, 3915, 1723, 4141, 4132
 9727, 3915, 1723, 4132, 1724
 9728, 3681, 3915, 1727, 1726
 9729, 3184, 4048, 3681, 3680
 9730, 3660, 3569, 1202, 1752
 9731, 3029, 3659, 2933, 3623
 9732, 3554, 1226, 3562, 4065
 9733, 3562, 1226, 3660, 1202
 9734, 3246, 3660, 1225, 3663
 9735, 4115, 3647, 1153, 3387
 9736, 3647, 4088, 3935, 3934
 9737, 3572, 3935, 3647, 4172
 9738, 3647, 1158, 3935, 1153
 9739, 3564, 1203, 3562, 3561
 9740, 3222, 1275, 1274, 1251
 9741, 3202, 3360, 3203, 3848
 9742, 4041, 1255, 3249, 1231
 9743, 3471, 3952, 4040, 4015
 9744, 3584, 3217, 3023, 3235
 9745, 3224, 1250, 1274, 1273
 9746, 3067, 3224, 3980, 3176
 9747, 3372, 3373, 3371, 3347
 9748, 3980, 1273, 1274, 1297
 9749, 4065, 1226, 1249, 1225
 9750, 3394, 1231, 4041, 3347
 9751, 3664, 3164, 4066,  707
 9752, 3704, 3165, 3415, 3688
 9753, 3556, 3560, 3559, 3557
 9754, 3265, 3407, 3408, 1677
 9755, 3978, 3277, 1297, 1296
 9756, 3706, 1413, 1388, 1389
 9757, 3977, 4090, 4107, 3101
 9758, 3097, 1390, 1414, 1389
 9759, 3328, 1966, 1416, 1392
 9760, 4144, 3724, 1713, 1647
 9761, 3097, 1389, 1414, 1413
 9762, 4144, 3664, 2921, 1592
 9763, 3664, 3722,  693,  694
 9764, 3753, 1908, 1907, 1912
 9765, 1438, 3098, 1413, 1437
 9766, 3559, 3723, 3722,  686
 9767, 2926, 1440, 1415, 1416
 9768, 3722, 3723,  693,  686
 9769, 4067, 3431, 3792, 3929
 9770, 3222, 1251, 1274, 1250
 9771, 3929, 4067, 4069, 1782
 9772, 4043, 3929, 1944, 1782
 9773, 3148, 3320, 3973, 3966
 9774, 1966, 1392, 1393, 1417
 9775, 3929, 1972, 3492, 3490
 9776, 3382, 3871,  998,  971
 9777, 3146, 1439, 1463, 1438
 9778, 1420, 1990, 1963, 1395
 9779, 3325, 1439, 1438, 1414
 9780, 3960, 1777, 1784,  425
 9781, 1441, 2047, 1465, 1466
 9782, 1394, 1418, 1992, 1393
 9783, 2019, 1417, 1993, 1992
 9784, 2996, 3381, 4027,  969
 9785, 4027, 4185,  996,  997
 9786, 4027, 4185, 1215, 1216
 9787, 3963, 3999, 1936, 1372
 9788, 3276, 3407, 4166, 3408
 9789, 3381, 1192, 4027, 1191
 9790, 3855, 1989, 1988, 1962
 9791, 3855, 1422, 1397, 1398
 9792, 2019, 1443, 1467, 1442
 9793, 3479, 3739, 3950, 3480
 9794, 3741, 3749, 3290, 3260
 9795, 3749, 3290, 3260,  409
 9796, 3230, 3936, 1252, 1253
 9797, 3960,  426, 1767, 1777
 9798, 3473, 3247, 3230, 4094
 9799, 3230, 3936, 1164, 1252
 9800, 3230, 3186, 3936, 1253
 9801, 1398, 4220, 3050, 4231
 9802, 1422, 4231, 4220, 1398
 9803, 3855, 1421, 1397, 1422
 9804, 3472, 3230, 3174, 3303
 9805, 4057, 1421, 1422, 1446
 9806, 3013, 4019, 3239, 3063
 9807, 4218, 1423, 1424, 1448
 9808, 3805, 1960, 1959, 1933
 9809, 4213, 4059, 4216, 4215
 9810, 3803, 1758, 1820, 1757
 9811, 3014, 3013, 3016, 4019
 9812, 3548, 1246, 3815, 1222
 9813, 4013, 3709, 2932, 4019
 9814, 3795,  341, 1814, 1812
 9815, 4068, 1540, 1624, 1534
 9816, 4171, 4175, 4176, 4170
 9817, 4154, 3702, 1432, 4147
 9818, 3308, 1522, 1497, 1498
 9819, 4071, 1956, 1955, 1929
 9820, 4222, 1400, 1401, 1425
 9821, 4073, 1930, 1956, 1929
 9822, 3807, 1377, 1818, 1378
 9823, 4154, 3702, 1408, 1432
 9824, 3593, 3470, 3595, 3651
 9825, 4104, 1430, 1429, 1405
 9826, 4169, 3653, 3288, 3652
 9827, 3593, 3594, 1283, 3321
 9828, 3321, 4129, 1305, 1306
 9829, 3703, 1407, 1431, 1406
 9830, 3265, 1677, 3408, 1703
 9831, 3793, 3800, 3982, 3795
 9832, 1305, 3321, 3338, 4129
 9833, 3205, 3847, 3206, 3903
 9834, 4183,  207, 4165, 1175
 9835, 3975, 1624, 1538, 1534
 9836, 3848, 4183, 1175, 1170
 9837, 3987, 1452, 1476, 1451
 9838, 4183,  207, 1175,  208
 9839, 4183,  208, 1175, 1170
 9840, 3856, 1689, 3405, 1656
 9841, 3607, 1978, 1979, 2005
 9842, 3140, 3332, 3142, 3540
 9843, 3442, 3443, 3539, 3620
 9844, 3081, 3620, 3139, 3442
 9845,  674, 1385, 4217,  681
 9846, 3856, 1691, 3141, 3142
 9847, 3920, 3114, 4142, 1652
 9848, 1433,  676,  677,   86
 9849, 4070, 3810, 3640, 3726
 9850, 4154, 4147,  676,  683
 9851, 3425,  691,  692,  684
 9852, 3114, 4142, 1652, 1590
 9853,   25, 2979, 4142,  405
 9854, 3772, 1578, 1574, 1636
 9855, 2979,  405,   25,  398
 9856, 4021, 1385, 1409, 1384
 9857, 2959,    5, 2084,  372
 9858, 3764, 3672, 3924, 3972
 9859, 3628, 3219, 1649, 1651
 9860, 3065, 3108, 3627, 3389
 9861, 3111,  176, 3770, 1118
 9862, 3393, 3397, 3395, 3406
 9863, 3757, 3115, 3769,  405
 9864, 4140, 1431, 1432, 1456
 9865, 3627,  406, 3065, 2083
 9866,  675,  674,   84, 1385
 9867, 3108, 3114, 3110, 1642
 9868, 2979, 4142, 3114, 1590
 9869, 2979, 1588,  397,  398
 9870, 3980, 3224, 1274, 1273
 9871, 3256, 1705, 1696, 1679
 9872, 3603, 1275, 3222, 1251
 9873, 3222, 1275, 1298, 1274
 9874, 3689,  319, 1357, 1355
 9875, 2047, 1440, 2020, 1441
 9876, 3453, 3735, 3760,  954
 9877, 3582, 3760, 1678, 1671
 9878, 4118,  913,  151, 1594
 9879, 2974, 1663, 1707, 1698
 9880, 3522, 1411, 1436, 1435
 9881, 3253, 2049, 2048, 2022
 9882, 3940, 1459, 1434, 1435
 9883, 3522, 1411, 1412, 1436
 9884, 3106, 3107, 2974, 1663
 9885, 3091, 1460, 1459, 1435
 9886, 3091, 1460, 1435, 1436
 9887, 4118,  920, 3762,  913
 9888, 3030, 2910, 2912, 3037
 9889,  913,  912, 3762, 4035
 9890,  912, 3762, 4035, 3452
 9891, 3919, 3835, 1896, 1861
 9892, 3130, 3135, 3137, 3132
 9893, 3677, 1899, 3623, 1864
 9894, 3093, 1461, 1460, 1436
 9895, 3751, 1625, 3364, 1682
 9896, 3367, 3884, 3751, 1685
 9897, 3324, 1995, 2021, 1994
 9898, 3751, 1682, 3662, 1685
 9899, 3212, 1461, 1437, 1462
 9900, 3751, 3867, 1625, 1541
 9901, 4143, 1701, 1705, 1694
 9902, 3787, 3751, 1509, 1510
 9903, 2926, 1441, 1416, 1417
 9904, 1442, 2019, 2020, 1466
 9905, 1417, 2019, 2020, 1442
 9906, 3253, 2049, 3150, 2048
 9907, 2044, 1444, 1468, 1443
 9908, 3787, 3886, 3884, 3319
 9909, 3787, 3751, 1510, 3867
 9910, 1415, 3325, 1439, 1440
 9911, 3873, 4157, 3871, 4077
 9912, 3382, 4027, 4185, 1215
 9913, 4081, 4026, 1217, 1216
 9914, 4157, 4083, 1238, 4080
 9915, 1994, 2926, 3328, 1993
 9916, 3873, 4157, 3379, 3871
 9917, 4157, 3382, 3379, 3871
 9918, 4157, 4077, 4164, 3871
 9919, 1444, 1990, 1420, 1419
 9920, 3674, 1387, 3840, 1388
 9921, 4157,  998, 3871, 4164
 9922, 1465, 1440, 2047, 1441
 9923, 4143, 3875, 3255, 3540
 9924, 4228, 1420, 1421, 1445
 9925, 3999, 1396, 1963, 1936
 9926, 1464, 2047, 1440, 2925
 9927, 3703, 1407, 3692, 3702
 9928, 3637, 3725, 3726, 3812
 9929, 4021, 1408, 4154, 3811
 9930, 1444, 1419, 1443, 2017
 9931, 3481, 3104, 4107, 4106
 9932, 4021, 4154, 3810, 3811
 9933, 3692, 3702, 1407, 3811
 9934, 4154,  683, 3614, 4147
 9935, 1422, 4056, 4057, 1446
 9936, 3417, 3616, 3699, 3614
 9937, 3426, 3559, 4204, 3723
 9938, 3637, 3811, 3726, 3810
 9939, 4087, 4057, 4228, 1421
 9940, 3178, 3758, 3180, 3179
 9941, 3111, 3115, 3113, 3769
 9942, 4056, 1422, 1447, 1446
 9943, 4057, 1445, 1421, 1446
 9944, 3577, 3453, 3760, 3582
 9945, 3757, 3759, 3920, 3761
 9946, 4218, 1448, 1447, 1423
 9947, 4220, 1424, 1423, 1399
 9948, 4097, 1470, 1494, 1469
 9949, 3111, 3756, 3757, 3769
 9950, 3108, 3113, 3115, 3627
 9951, 3095, 1460, 3096, 1484
 9952, 3369, 3096, 3368, 3887
 9953, 4214, 1496, 1472, 1497
 9954, 4214, 4215, 4226, 1472
 9955, 3808, 1818, 1760, 1830
 9956, 3967, 3477, 3104, 3483
 9957, 3486, 3089, 1459, 1458
 9958, 3369, 3887, 3095, 3096
 9959, 3095, 3887, 1484, 3096
 9960, 4037, 3945, 1981, 2008
 9961, 4137, 1401, 1426, 1425
 9962, 4227, 4163, 2065, 2066
 9963, 3991, 1426, 1427, 1451
 9964, 3994, 3996, 3997, 3987
 9965, 3313, 3786, 4167, 3923
 9966, 3991, 1450, 1426, 1451
 9967, 2091, 2092, 3926,  379
 9968, 4211, 4149, 1748, 1203
 9969, 3569, 4149, 3561, 1203
 9970, 2090,  378, 1562,  377
 9971, 3563, 3564,  283, 1227
 9972, 3564,  282,  283, 1227
 9973, 4211,  282, 3564, 1203
 9974, 3786, 1498, 1497, 1473
 9975, 1351, 3564, 3565, 3568
 9976, 3562, 1202, 3569, 1203
 9977, 3272, 3555, 3674, 3566
 9978, 3779, 1477, 1453, 1478
 9979, 3561, 3272, 3565, 3568
 9980, 3780, 1502, 1477, 1478
 9981, 3565, 3563, 1352, 3603
 9982, 3922, 1980, 1979, 1953
 9983, 2944, 2937, 2934, 2942
 9984, 3606, 2032, 2006, 2033
 9985, 3471, 4040, 3952, 3298
 9986, 3215, 3430, 3214, 3930
 9987, 4147, 1457, 1432, 1433
 9988, 3575, 1905, 3133, 3517
 9989, 3349, 3133, 3575, 3489
 9990, 3491, 3196, 3283, 3285
 9991,   87, 1457,  677, 1433
 9992, 3348, 3575, 3788, 3790
 9993,  677, 4205, 4177,  678
 9994, 3313, 4167, 3311, 4163
 9995, 3990, 4167, 4175, 4174
 9996, 4219, 4225, 4218, 4223
 9997, 4177, 1481, 1456, 1457
 9998, 4225, 4216, 4218, 4215
 9999, 4175, 4174, 4229, 4170
10000, 4084, 3923, 4167, 3786
10001, 4167, 3923, 2037, 2064
10002, 4227, 2038, 4225, 2039
10003, 4213, 2039, 4225, 4216
10004, 3991, 4174, 4170, 1450
10005, 4174, 1473, 4226, 1449
10006, 3990, 4175, 4167, 4084
10007, 4229, 1449, 4174, 4226
10008,   87,   88,  678, 1457
10009, 4174, 3786, 4226, 1473
10010, 3486, 1458, 1483, 1482
10011, 3565, 3272, 3601, 3604
10012, 3603, 3223, 3222, 1275
10013, 3228, 3221, 4089, 3476
10014, 3603, 1354, 3601, 3223
10015, 3940, 1458, 1434, 1459
10016, 3624, 3077, 3118, 1248
10017, 4106, 1637, 1655, 1548
10018, 3563,  284,  283, 1352
10019, 1352, 3603, 1354, 3601
10020, 3565, 3568, 1353, 1351
10021, 3484,  319, 1458, 1482
10022, 3229, 3272, 3601, 3602
10023, 3375, 3352, 3620, 1097
10024, 3237, 3241, 4024, 3238
10025, 3222, 3603, 3601, 3223
10026,  685, 4204, 3425, 4205
10027, 2925, 2047, 2020, 2021
10028, 3481, 1361, 1358, 1359
10029, 3019, 3163, 3767, 3171
10030, 3559,  686, 4204, 3723
10031, 3212, 1437, 1438, 1462
10032, 4109, 1698, 1707, 1683
10033, 3093, 1461, 1436, 1437
10034, 1481,  678, 4177, 4204
10035, 3286, 3594, 3656, 4181
10036, 3145, 1462, 1486, 1461
10037, 3286, 3594, 4181, 4159
10038, 4194, 4187, 4159, 4181
10039, 3150, 2048, 2049, 2075
10040, 3145, 1486, 1485, 1461
10041, 4194, 4181, 4159, 1055
10042, 4194, 4160, 4193, 3335
10043, 3259, 4099, 3052, 3896
10044, 4127, 4099, 3052, 4133
10045, 4099, 4133, 1872, 1886
10046, 4127, 1921, 4099, 1872
10047, 4159, 1056, 4181, 3286
10048, 3286, 4159, 1056, 1083
10049, 3335, 1080, 4161, 1079
10050, 3151, 1488, 1463, 1464
10051, 4199, 4160, 3819, 4162
10052, 2925, 1464, 1439, 1440
10053,  381, 2093, 1552, 3911
10054, 1468, 1467, 2045, 1443
10055, 2045, 1492, 1467, 1468
10056, 1991, 1990, 1419, 1395
10057, 3857, 3365, 3152, 3867
10058, 1490, 1466, 2047, 3047
10059, 4199, 3336, 4193, 3335
10060, 3593, 3820, 3819, 4159
10061,  388, 1514,  363, 1513
10062, 1464, 1489, 2047, 3151
10063, 4194, 4164, 4078, 1027
10064, 4076, 3594, 1259, 4187
10065, 1443, 1468, 2044, 2045
10066, 4176, 1983, 4100, 1984
10067, 3791, 1660, 1675, 1563
10068, 4087, 1990, 4228, 1989
10069, 4171, 1983, 4176, 2010
10070, 4171, 4170, 4176, 4100
10071, 4176, 4175, 2011, 4225
10072, 4176, 4139, 1984, 4100
10073, 1491, 2045, 1492, 1467
10074, 1488, 1512, 1513, 2074
10075, 4059, 1471, 1470, 1446
10076, 4139, 4100, 4074, 4073
10077, 1464, 1463, 3151, 2925
10078, 2044, 1492, 2045, 1468
10079, 4176, 4100, 4138, 4139
10080, 2926, 1994, 2021, 2020
10081, 3775, 1469, 4210, 1445
10082, 4074, 4138, 4100, 4139
10083, 4215, 1447, 1448, 1472
10084, 3775, 1470, 1469, 1445
10085, 4223, 1984, 4224, 1985
10086, 4176, 4175, 4225, 4229
10087, 4074, 3806, 4073, 3808
10088, 4176, 4137, 4138, 4170
10089, 4059, 1471, 1446, 1447
10090, 4073, 3998, 1956, 4100
10091, 3646, 4014, 3471, 4040
10092, 3372, 4015, 3471, 3831
10093, 3952, 4040, 4015, 1033
10094, 4226, 1472, 1448, 1473
10095, 4218, 1449, 1448, 1424
10096, 4040, 4015, 1060, 4014
10097, 4040, 1060, 4015, 1033
10098, 3536, 1062, 4040, 4003
10099, 4059, 1447, 4215, 1471
10100, 4226, 1448, 1449, 1473
10101, 3764, 3970, 3608, 3766
10102, 3308, 1521, 1497, 1522
10103, 3297, 3298, 3360, 1035
10104, 3548, 1222, 3033, 3034
10105, 3312, 1523, 1522, 1498
10106, 3168, 3663, 1224, 1200
10107, 3014, 4019, 3240, 3239
10108, 3237, 4024, 3809,  963
10109, 3253, 2048, 2021, 2022
10110, 3301, 1112, 4006, 1113
10111, 1450, 3785, 1474, 1475
10112, 1573, 3301, 3933, 1141
10113, 3301, 4125, 3302, 1573
10114, 4004, 4116, 3931, 4008
10115, 3465, 3822, 4129, 3823
10116, 2089, 1562, 1568,  377
10117, 3779, 1453, 1454, 1478
10118, 4106, 1637, 1543, 1536
10119, 3755, 3301, 3302, 1139
10120, 3690, 3695, 3694, 3631
10121, 4071, 3998, 4072, 1955
10122, 3776, 1524, 1500, 1525
10123, 4204, 1481, 1505, 1480
10124, 3698, 3645, 1870, 3982
10125, 3693, 3954, 4105, 3612
10126, 3982, 1381, 1808, 1810
10127, 4155, 1670, 1636, 1634
10128, 3698, 3697, 3955, 3797
10129, 3780, 3972, 3672, 3733
10130, 3929, 3792, 1944, 1971
10131, 4069, 1855, 3717, 1850
10132, 4022, 1479, 1478, 1454
10133, 3967, 3105, 1542, 1626
10134, 3890, 1946, 4069, 1787
10135, 4177, 1481, 1480, 1456
10136, 4205,  685,  677,  684
10137, 4154,  675,  682,  683
10138, 4069, 3492, 1945, 1946
10139, 1945, 1787, 1782, 4069
10140,  415, 1945, 1787, 1782
10141, 1457,   87,  677,  678
10142, 4204, 1505, 1504, 1480
10143, 4069, 4067, 1855, 1782
10144, 3308, 1607, 1522, 3314
10145, 3308, 3311, 1497, 3310
10146, 4175, 2011, 4084, 2010
10147, 3308, 3309, 1611, 3314
10148, 4227, 3311, 4214, 4226
10149, 4167, 3786, 3311, 4226
10150, 4147, 1433,  677, 1457
10151, 1473, 4226, 1497, 3786
10152, 4106, 3482, 3105, 1542
10153, 1537, 1361,  321,   24
10154, 3308, 1498, 3312, 1522
10155, 3095, 1484, 1483, 1459
10156, 3485, 1361, 1359,  321
10157, 3275, 3825, 3978, 3977
10158, 3967, 3485, 3483, 1506
10159, 3422, 1296, 3978, 1320
10160, 3311, 3786, 1498, 1497
10161, 3457, 3462, 3885, 3340
10162, 3457, 1835, 3900, 1775
10163, 3339, 3460, 1004, 1005
10164, 3095, 1484, 1459, 1460
10165, 3905, 3436, 1095, 1094
10166, 3683, 3339, 3687,  979
10167, 3887, 1508, 1507, 1483
10168, 3339, 3900, 1781, 1775
10169, 3483, 1483, 3887, 1507
10170, 1004, 3339, 3340, 3460
10171, 3483, 1506, 1482, 1507
10172, 1419, 2017, 1444, 1990
10173, 3682, 3339, 3683, 3625
10174, 3746, 3345, 1580, 2107
10175, 4051, 3946, 3746, 3345
10176, 4051, 3345, 2080, 3496
10177, 3861, 3496, 4051, 2080
10178, 4153, 1195, 1196,  966
10179, 4150,  189, 1739,  274
10180, 4153,  273,  190,  189
10181, 4153,  274, 1195,  273
10182, 3586, 1995, 3328, 1968
10183, 3152, 1511, 1486, 1487
10184, 1547,  370, 1507,  369
10185, 4153,  273,  966,  190
10186, 3485, 1359, 3484,  320
10187, 3787, 1510, 1485, 1486
10188, 3548, 3828, 3815, 1246
10189, 4208, 1468, 1469, 1493
10190, 3047, 1467, 2046, 2045
10191, 3253, 2925, 2926, 2021
10192, 2071, 1516, 2098, 1491
10193, 1513, 2074, 1489, 1488
10194, 3485,  321, 1537, 1361
10195, 2047, 2046, 1466, 2020
10196, 3815, 3828, 3033,  991
10197, 3815, 1220, 1244, 1019
10198, 1346, 4090, 4107, 3977
10199, 4087, 1990, 1963, 1420
10200, 4039, 2099,  387,  386
10201, 1221, 3815, 3809,  992
10202, 3815,  992, 1221, 1220
10203, 3096, 1484, 1460, 1485
10204, 3815, 1245, 1019, 1244
10205, 4039,  386,  387,  362
10206, 4152, 4180, 1198, 4150
10207, 4152, 3809,  965, 1197
10208,  277, 4180, 4013, 1742
10209, 3034, 4180, 1199, 1198
10210, 1198, 4152, 1197, 3809
10211, 4060, 2042, 2068, 2041
10212, 4180,  276, 1742,  277
10213, 3986, 4208, 4095, 2070
10214, 4180, 3240, 1742, 1744
10215, 2075, 3907, 3150, 3151
10216, 3887, 1509, 1508, 1484
10217, 4180, 1737, 1742,  276
10218, 1514, 2074, 1489, 1513
10219, 3916,  916, 3918, 3917
10220, 3476, 1359, 1356, 1357
10221, 2997, 3618,  914, 3619
10222, 4060, 4096, 2068, 2069
10223, 3918, 3917,  916,  915
10224, 4214, 1472, 1496, 1471
10225, 4060, 2042, 4097, 2069
10226, 3986, 4095, 4208, 1493
10227, 3047, 1467, 2045, 1491
10228, 3916, 4132, 3918,  923
10229, 3183, 3897, 3188, 3262
10230, 3893, 3916, 3918, 3917
10231, 4033, 1822, 1819, 3869
10232, 3873, 1189, 3379, 1213
10233, 4213, 2068, 3912, 2067
10234, 3868, 3869, 3870,  973
10235, 3869, 4179,  973,  974
10236, 3844,  975, 4179,  974
10237, 3885, 3844, 3958, 1831
10238, 4033, 3958, 1831, 1819
10239, 4096, 4212, 1494, 1495
10240, 3841, 3885,  975, 3844
10241, 3868, 3873, 1189, 3379
10242, 3912, 2068, 2095, 2094
10243, 3310, 1497, 4214, 3311
10244, 3786, 1474, 1498, 1473
10245, 1636, 4155, 3772, 3169
10246, 1010, 3876, 3950, 3507
10247, 3738, 1010, 3876, 3950
10248, 3507, 1011, 3950, 1010
10249, 3497, 3508, 3507, 3876
10250, 3509, 3507, 3510, 3891
10251, 1012,  985, 1011, 3891
10252, 3510, 3507, 3508,  984
10253, 3507, 3950, 1011, 3891
10254, 3503, 3509, 3510, 3512
10255, 3187, 3474, 3472, 3475
10256, 3157, 3647, 1157, 4172
10257, 3304, 3172, 3174, 4172
10258, 3173, 3174, 1162, 1167
10259, 1155, 4136, 1090, 3865
10260, 3970, 3608, 4168, 3971
10261, 4136, 3243, 1161, 1160
10262, 3784, 1499, 1500, 1524
10263, 3019, 2921, 3171, 3664
10264, 3419, 3765, 3715, 3610
10265, 3771, 3715, 3765, 2060
10266, 3715, 3765, 2060, 3610
10267, 1523,  353, 1524, 1605
10268, 3169, 2958, 1582, 1639
10269, 3671, 3673, 1609, 1526
10270, 1357, 3484, 3487, 3476
10271, 3487, 1357, 3689,  319
10272, 3485,  321, 1506, 3967
10273, 3773, 3777, 4017, 3776
10274, 3487,  319, 3689, 1458
10275, 3673, 1502, 1527, 1526
10276, 1501, 1525, 1526, 3774
10277, 1149,  247, 1300,  246
10278, 1154, 3935, 4086, 1159
10279, 3227, 3486, 3487, 3089
10280, 3487, 1458, 3689, 3089
10281, 3424,  691,  698,  699
10282, 4187, 3819, 1283, 1284
10283, 4160, 4187, 3819, 4159
10284, 4194, 4076, 4187, 4181
10285, 4076, 3594, 4181, 3656
10286,  678, 4177, 4204, 4205
10287, 3590, 3286, 3595, 3594
10288, 3593, 3470, 3820, 3595
10289, 3590, 3595, 3286, 3287
10290, 3286, 3658, 1029, 4181
10291, 3594, 3321, 3326, 1283
10292, 3125, 3123, 3035, 3126
10293, 3254, 3973, 1694, 1679
10294, 1159, 1153, 1154, 3935
10295, 4050, 3043, 3827, 3581
10296, 3147, 3319, 3787, 3751
10297, 2947, 2912, 2948, 3232
10298, 3316, 3532, 3662, 3531
10299, 3874, 1710, 3814, 3264
10300, 3100, 3101, 3104, 3106
10301, 3874, 3128, 3882, 3264
10302, 3874, 4143, 1710, 1705
10303, 4212, 1520, 1519, 1495
10304, 3226, 3978, 1298, 1322
10305, 3967, 1537,  371, 1626
10306, 3257, 3874, 3882, 3888
10307, 3469, 1331, 3464, 1330
10308,  322, 3482, 1360, 1536
10309,  306, 1330, 1604, 1606
10310, 1515, 1514, 2100, 1490
10311, 3787, 1509, 1485, 1510
10312, 4203, 4068, 1534, 1342
10313, 3482, 1536,  322, 1537
10314, 4116, 4124, 3823, 1328
10315, 4004, 3596, 4006, 3822
10316, 3308, 1521, 1522,  355
10317, 3824, 4129, 1330, 1329
10318, 3465, 3824, 3823, 4129
10319, 3823, 1631, 3824, 3821
10320, 1541,  367, 1509, 1510
10321, 1512, 3655, 3857,  365
10322, 3824, 3821, 1631, 1629
10323, 3783, 1499, 3785, 3784
10324, 3151, 1488, 1464, 1489
10325, 4084, 4167, 3923, 2037
10326,  371, 1537, 3967,  321
10327, 4084, 2038, 4167, 2037
10328, 3152, 1510, 1486, 1511
10329, 3993, 3783, 3786, 3785
10330, 3312, 1498, 3785, 1499
10331, 3993, 4084, 3786, 3923
10332, 3574,  901, 3551,  938
10333, 2091, 2090,  378, 1558
10334, 3144, 3151, 1487, 1463
10335, 4174, 3786, 1474, 3785
10336, 2018, 2019, 1992, 1443
10337, 1491, 2071, 1492, 2045
10338, 4226, 1497, 3786, 3311
10339, 4174, 3786, 1473, 1474
10340, 4158, 1235, 3956, 1211
10341, 3047, 1466, 2046, 1467
10342, 1361,  322, 3482, 1360
10343, 3658, 3656, 4158, 4075
10344, 3984, 4095, 1516, 2098
10345, 4227, 2066, 2065, 2039
10346, 4039,  362,  361,  386
10347, 3785, 1499, 1474, 1475
10348,  388,  389, 2101,  364
10349, 3458, 3842, 3658, 4158
10350, 3842, 4075, 4158, 4179
10351, 3973, 1660, 4050, 1694
10352,  362, 1514, 2100, 1515
10353, 3366, 3233, 3849, 2050
10354, 3320, 3966, 3849, 3580
10355,  388,  363,  364, 1513
10356, 3705, 3973, 1660, 4050
10357, 3973, 1675, 3365, 3791
10358, 3791, 3966, 3973, 3580
10359, 3983, 1569, 1559,  384
10360, 3973, 3966, 3791, 3365
10361, 4178, 4185, 1024, 1023
10362, 4178, 4185, 1240, 1239
10363, 4184, 4185, 4178, 1023
10364, 3334, 4083, 4178, 1263
10365, 3985, 2069, 2095, 2068
10366, 4189, 1288, 4191, 4198
10367, 3334, 1263, 4189, 1287
10368, 4154, 3702, 3811, 1408
10369, 3054, 3642, 3261, 3897
10370, 4217, 3810,  682,  681
10371, 3776, 1501, 3774, 1525
10372, 3984, 1516, 4039, 2098
10373, 4217, 4154, 1409,  675
10374, 4217,  682, 4154,  675
10375, 1496, 3310, 1521, 1497
10376, 3858, 3365, 1539, 3791
10377, 3986, 4095, 2097, 2070
10378, 3857, 3858, 3907, 3365
10379, 3914, 3983, 1518, 1559
10380, 3966, 2104, 3580, 3791
10381, 4066,  707,   91,  708
10382, 3966, 3580, 2077, 3849
10383, 1211, 1187, 1210, 3956
10384, 3986, 2096, 2069, 2070
10385, 4158, 3956, 1235, 3327
10386, 3956, 3327, 1234, 1235
10387, 3370, 1209, 3956, 1233
10388, 4174, 1450, 1474, 1449
10389, 4158, 3458, 3842, 3956
10390, 3985, 1494, 1519, 1518
10391, 3885, 3957, 3958, 3843
10392, 3370, 3956, 1209, 3899
10393, 3725, 1868, 3697, 1838
10394, 3725, 3812, 1816, 1866
10395, 3725, 3697, 1816, 3691
10396, 3691, 3811, 3637, 3692
10397, 3725, 3636, 1866, 1840
10398, 3637, 3811, 3812, 3726
10399, 3725, 3812, 1866, 3726
10400, 3159, 3968, 4038, 3383
10401, 3153, 3573, 3648, 3159
10402, 2997, 3618, 3641,  914
10403, 1617,  358, 1519,  357
10404, 3754, 1667, 3160, 1608
10405, 3650, 1608, 3160, 4038
10406,  680,   90, 1505,   89
10407, 3160, 3544, 1638, 1667
10408, 3160, 3383, 1664, 1646
10409, 3171, 3426, 3163, 3723
10410, 3384, 3383, 3160, 1646
10411, 3308,  356, 1521,  355
10412, 3773, 1526, 1525, 3774
10413, 1614, 1520,  356,  357
10414, 3543, 3155, 3384, 3864
10415, 3664,  708,  700,  707
10416, 4116, 1328, 3754, 1327
10417,  350, 1526,  351, 1609
10418, 3153, 3573, 3159, 3157
10419, 3754, 3823, 1328, 4116
10420, 1303, 3648, 1302, 3649
10421, 3673, 1502, 1503, 1527
10422, 1302, 3649, 1326, 1303
10423, 1600, 3754, 3823, 1328
10424, 3558, 1503, 1504, 1528
10425, 3649, 3648, 1302, 3650
10426,  680, 3559, 1505, 3556
10427, 3649, 3931, 1303, 3648
10428, 4194, 4079, 4164, 4186
10429, 3556, 3558, 3559, 1504
10430, 4160, 3335, 1081, 4161
10431, 3932, 3754, 3160, 3649
10432, 1055, 4159, 1056, 4181
10433, 4194, 4160, 1054, 1055
10434, 4160, 3820, 4159, 3819
10435, 3157, 3647, 3387, 3386
10436, 2997, 3551, 3574, 3619
10437, 3572, 3157, 4172, 3647
10438, 3385, 3383, 3388, 3387
10439, 3857, 1511,  366, 1510
10440, 3155, 3385, 3865, 3386
10441, 3159, 3650, 3934, 3648
10442, 3158, 3386, 3387, 3385
10443, 3580, 2078, 3581, 2105
10444, 3705, 3581, 1566, 2105
10445, 3255, 3874, 4143, 3814
10446, 3148, 3152, 3966, 3365
10447, 3581, 1659, 3826, 3827
10448, 3967,  371, 1506,  370
10449, 3045, 3581, 3580, 3850
10450,  248,  247, 4086, 1154
10451, 3966, 3791, 2103, 2104
10452, 3914, 3985, 3912, 4212
10453, 3983, 3986, 1518, 1517
10454, 3986, 2070, 2097, 2096
10455, 3985, 3914, 3983, 1518
10456, 4058, 4060, 2042, 3775
10457, 3986, 4095, 1493, 1517
10458, 2100, 2074, 2073, 1490
10459, 3867, 1541, 1535, 1625
10460, 3914, 3985, 2096, 2095
10461, 1541,  368, 1509,  367
10462, 4060, 2069, 2068, 2042
10463, 3986, 4097, 1494, 1493
10464, 3655, 1532, 1531,  365
10465, 2997, 3551, 3619,  907
10466, 3488, 3248, 3473, 4094
10467, 3095, 1484, 3887, 1483
10468, 3857,  366,  367, 1510
10469, 3483, 1507, 1482, 1483
10470, 3711, 1847, 3362, 3206
10471, 1512,  364, 2101, 3655
10472, 3845, 1867, 3711, 1847
10473, 4189, 4190, 1287, 1288
10474, 4083, 4178, 1263, 1239
10475, 1512, 3857, 1511,  365
10476, 3334, 3336, 3335, 1052
10477, 1964, 1395, 1938, 1937
10478, 3984, 1516, 4095, 1517
10479, 3334, 3336, 1262, 1286
10480, 1262, 3334, 4083, 3336
10481, 3729, 3734, 4126, 3731
10482, 3983,  360, 3984, 1517
10483, 3935, 1300, 4086, 1276
10484, 4115, 1148, 1153, 1154
10485, 3310, 1617, 1519, 1520
10486, 3613,  698, 3424,  691
10487, 3454, 3185, 3732, 3448
10488, 3914, 2096,  384,  383
10489, 4100, 1957, 4073, 4139
10490, 3178, 3736, 3454, 3729
10491, 3574, 3619,  908, 3917
10492, 4156, 2063, 2036, 2037
10493, 3991, 1475, 1450, 1451
10494, 3983,  360,  359, 1569
10495, 1519,  358, 3914, 1518
10496, 4086,  247, 1276, 1300
10497, 3736, 3756, 3579, 3180
10498, 3549,  935, 3551,  900
10499, 2088, 1574,  376, 1568
10500, 3943, 3965,  173, 3181
10501, 3188, 3262, 1722,  409
10502, 3730, 3735,  951,  952
10503, 3943, 3181,  174, 3180
10504, 3911, 3310, 1550, 1617
10505, 1607,  354, 1522, 1523
10506, 3765, 3610, 2033, 2060
10507, 3179, 3943, 3180, 3181
10508, 3729, 3180, 3730, 4049
10509, 3773, 1525,  351,  352
10510, 4213, 2067, 2066, 2040
10511, 3551,  908, 3619,  907
10512, 2987, 2986, 3317, 2985
10513, 1451, 3991, 3987, 1427
10514, 3085, 3352, 3398, 3399
10515, 1609, 1527, 1615,  350
10516, 3773,  352,  353, 1524
10517, 3524, 1070, 3376, 1071
10518, 3375, 3376, 1070, 3620
10519, 1607,  355, 1522,  354
10520, 1527,  350,  349, 1615
10521, 3721, 1953, 1926, 1927
10522, 1140, 1567, 1573, 3302
10523, 3755, 3302, 3821, 1139
10524, 1631, 3302, 1567, 3821
10525, 3302, 4125, 1631, 1633
10526, 3773, 1525,  352, 1524
10527, 4212, 1520, 1495, 1496
10528, 3556,  349,  348, 1618
10529, 3821, 3302, 1567, 1139
10530, 3772, 1574, 1568, 1634
10531, 4194, 4076, 4075, 4078
10532, 4199, 4093, 1309, 3337
10533, 1614, 1521,  356, 1520
10534, 1605,  354, 1523,  353
10535, 4160, 1082, 4162, 1081
10536, 1529,   67,    6,   90
10537, 3922, 3607, 1979, 2006
10538, 3794, 1427, 1403, 1428
10539, 3590, 3597, 3595, 3287
10540, 3469, 3468, 1331, 1307
10541, 3469, 3470, 3593, 3651
10542, 3597, 2966, 1137, 1111
10543, 3032, 3467, 1136, 1137
10544, 3463, 3032, 3466, 3468
10545, 1109, 3032, 1110, 3820
10546,  701, 1645,   63, 2959
10547, 3286, 1056, 3287, 1083
10548, 3286, 3595, 1083, 3287
10549, 4037, 2008, 1981, 1982
10550, 4022, 3609, 1454, 1478
10551, 4022, 3733, 1479, 3768
10552, 4022, 3703, 4140, 1455
10553, 3486, 3484, 3487, 1458
10554, 3557, 1615, 1618, 1713
10555, 3617, 3418, 3413, 3703
10556, 4022, 3609, 1478, 3733
10557, 3764, 3733, 3779, 3609
10558, 3703, 4105, 1454, 3609
10559, 4105, 3696, 3703, 1430
10560, 3696, 3692, 1406, 3955
10561, 3798, 4104, 3797, 3693
10562, 3611, 3922, 3947, 3694
10563, 3922, 3694, 4146, 1953
10564, 3954, 3766, 3997, 4105
10565,  680,  679,   89, 1505
10566, 1794,  982, 4165, 3847
10567, 3903, 3244, 1171, 1172
10568,  347,   84,    7,  674
10569, 3847, 3903, 1803, 3206
10570, 3903, 1172, 4117, 3244
10571, 4117, 3362, 1178, 1177
10572, 4102, 1799, 1876, 1911
10573, 4020, 1385, 1384,  346
10574, 3362, 3903, 4117, 3904
10575, 3273, 3675, 3674, 3522
10576, 4204, 4205,  685,  678
10577,  676,   86, 1433, 1409
10578, 4154, 1432, 1408, 1433
10579, 3903, 1803, 3362, 1177
10580, 3090, 3229, 3227, 3068
10581, 3700, 3126, 1913, 3959
10582,  676, 1409,  675,   85
10583, 1640, 1597, 3863, 3384
10584, 4147, 1456, 1432, 1457
10585, 4217,  675,  674,  682
10586, 4205,  678,  677,  685
10587, 4147, 1433,  676,  677
10588, 3158, 3384, 3383, 3160
10589, 1479, 1503, 1504, 4023
10590, 3425,  692,  685,  684
10591, 4154,  676, 1409,  675
10592,  679, 1505, 1481,   89
10593, 3069, 3412, 3097, 3124
10594, 3679, 1903, 3677, 3075
10595, 3728, 3959, 1884, 1902
10596,  677,   86,   87, 1433
10597,  680, 1505,   90, 1529
10598,  679, 1481,  678,   88
10599, 1913, 3126, 1902, 3959
10600, 3123, 3036, 3126, 3678
10601,  678, 1481, 1457,   88
10602, 4204,  678,  679, 1481
10603, 3127, 1413, 3706, 3122
10604,   67,  680,   90, 1529
10605,   67,    6,  348, 1529
10606, 3157, 1157, 3647, 3386
10607,  679,  680, 3559, 1505
10608, 3810, 3640,  689,  688
10609, 3722, 3723, 3767,  693
10610, 3706, 1389, 3122, 1413
10611, 3706, 1389, 3125, 3122
10612, 3556, 1528, 1529,  348
10613, 3818, 3834, 4151, 3359
10614, 3537, 3838, 3834, 3245
10615, 1149, 1324, 1300, 4115
10616, 3836, 4145,  960, 1783
10617, 4181, 1029, 4075, 3658
10618, 3556, 1529,   67,  348
10619, 3286, 1056, 4181, 1029
10620, 3556,  680,   67, 1529
10621, 4194, 1054, 4160, 3335
10622, 3842, 1029, 3658, 4075
10623, 3842, 3658, 1029, 3657
10624, 4020, 1821, 3812, 3726
10625, 4070, 4102, 3640,  688
10626,  674,  347,  681,  102
10627, 3811, 1407, 1383, 1408
10628, 4020, 1384, 1383,  345
10629, 3811, 1383, 1384, 1408
10630, 3657, 3592, 3288, 4169
10631, 4076, 3656, 4158, 1235
10632,  688,  100, 4070, 4102
10633, 3458, 3956, 4158, 3327
10634, 3443, 3859, 1096, 3620
10635, 3540, 3141, 1702, 3142
10636, 4154, 1408, 1409, 1433
10637, 3702, 1407, 1432, 1431
10638, 4154, 1409,  676, 1433
10639, 3493, 3946, 3345, 3433
10640, 4147,  683,  684,  676
10641, 3255, 3540, 3814, 4143
10642, 3699,  683,  690,  691
10643, 4140, 1480, 1455, 1456
10644, 3098, 3097, 1414, 1413
10645, 3703, 1455, 1430, 1431
10646, 3586, 3236, 3235, 3025
10647, 3647, 4172, 3935, 1158
10648, 3723,  685, 4204, 3425
10649, 3556,   66,  680,  687
10650, 4204,  685, 3723,  686
10651, 3073, 4098, 3489, 3964
10652, 3073, 3753, 4098, 3964
10653, 4140, 4177, 3418, 3426
10654, 4204,  679, 1505, 1481
10655, 1415, 3325, 2926, 3328
10656, 3099, 3212, 2989, 3093
10657, 3431, 3929, 3930, 3792
10658, 3559,  686, 3722,  687
10659, 3231, 3333, 3851, 3521
10660, 3558, 1503, 1528, 1527
10661, 4144, 3171, 3722, 3724
10662, 3556,  680, 1529, 1505
10663, 3559,  687,  679,  686
10664, 2994, 3212, 2990, 3213
10665, 1592,  701, 1645,   64
10666, 3560,   66, 4144, 1591
10667, 3841,  975, 3885,  976
10668, 1528,  349, 3557, 1527
10669, 3722,  687,  686,  694
10670, 3594, 3656, 1259, 3326
10671, 3842, 3657, 1029, 1002
10672, 3458, 3657, 3842, 3461
10673, 3872, 1212, 4200, 1211
10674, 4033, 3843, 4158, 4179
10675, 3842, 1002, 4179,  975
10676, 1002, 4179, 4075, 3842
10677, 3572, 3935, 3251, 3934
10678, 3640,  695,  696,  688
10679, 3843, 3885, 3340, 3841
10680, 4158, 4179, 4075, 4200
10681, 3691, 1382, 1407, 1406
10682, 4020,  346, 1821, 1801
10683, 3427, 3587, 3355, 3589
10684, 3279, 1896, 3280, 3835
10685, 3518, 3129, 3130, 3131
10686, 3278, 3279, 3280, 3835
10687, 3635, 1923,  437, 1789
10688, 4178, 1263, 1240, 1264
10689, 4157, 1214, 4080, 1238
10690, 3382,  997, 4080, 4185
10691, 4081, 1241, 4184, 1240
10692, 4081,  995, 4026,  996
10693, 1874, 1800, 3726, 1801
10694, 3810,  688,  689,  681
10695, 3639,  704,  696,  703
10696, 1159, 1276, 4086,  248
10697, 4081, 1217,  995, 1022
10698, 3614,  683,  682,  690
10699, 4081, 1241, 1217, 1022
10700, 3699, 3614, 3616,  690
10701, 4154, 4147, 1433,  676
10702, 4026, 1217, 1193,  995
10703, 3613,  690,  698,  691
10704, 3873, 4157, 1213, 3379
10705, 4081,  996, 4026, 4027
10706, 3382, 4185, 4027,  997
10707, 3424,  691,  699,  692
10708, 4080, 4178, 1239, 4185
10709, 3559, 1505, 4204,  679
10710, 1214, 4080, 3382, 4157
10711, 3280, 3138, 1906, 1896
10712, 3039,  704,  705,  697
10713, 3270, 3976, 3268, 3525
10714, 3281, 3063, 1909, 4009
10715, 3767,  700,  692,  699
10716, 3136, 3279, 3138, 3280
10717, 3664,  693,  701,  694
10718, 3559,  679,  687,  680
10719, 1592,   65,  694,   64
10720, 3136, 3132, 3280, 3138
10721, 3306, 3131, 3003, 3005
10722, 3013, 3281, 3063, 3239
10723, 3279, 3835, 1859, 1896
10724,  375, 3772, 2088, 2087
10725, 3736, 3730, 3180, 3735
10726, 3454, 3736, 3453, 3735
10727, 4144,   65,  687,  694
10728, 3444, 3452, 3762, 3449
10729, 3722,  686,  693,  694
10730, 3724, 1665, 1609, 1615
10731, 3445, 3757, 3447, 3761
10732, 3449,  919, 3762,  926
10733, 3449, 3732,  926, 3450
10734,  688,  100, 4102,  695
10735, 3645, 4148, 3800, 3802
10736, 3763, 3449, 4061, 4130
10737,   99, 1799, 4102, 1911
10738, 3444, 3578, 3763, 3762
10739, 3010, 3238, 3818, 3951
10740, 1385,  674,  347,  681
10741,  100, 1799, 4102,   99
10742, 2973, 2974, 3107, 3881
10743, 2932, 3062, 2933, 3080
10744, 3237, 3240, 4024, 3241
10745, 3423, 3277, 3422, 1296
10746, 1296, 3587, 3423, 3277
10747, 3638,  702,  703,  695
10748, 4154, 3614,  682, 3810
10749, 4177, 4147, 1457, 1456
10750, 1296, 1272, 3587, 3277
10751, 2976, 3341, 3013, 3281
10752, 3616,  696,  697,  689
10753, 3266, 3881, 4109, 2974
10754, 3613,  697,  698,  690
10755, 3704, 2005, 2004, 1978
10756, 3383, 4038, 3159, 3160
10757, 1041, 3525, 1068, 1042
10758, 3525, 1068, 1042, 3621
10759, 3472, 3186, 3247, 3187
10760, 2957, 3064, 3525, 3429
10761, 3139, 3621, 3376, 3620
10762, 2987, 3317, 2994, 3149
10763, 3268, 1042, 3525, 3976
10764, 3965, 3181, 3599,  173
10765, 3780, 3768, 3672, 1502
10766, 3768, 1503, 1479, 4023
10767, 3179, 3183, 3188, 3749
10768, 3185, 3892, 3734, 3732
10769, 3185, 3892, 3895, 3734
10770, 4195, 3712, 3752,  706
10771, 3610, 2058, 2031, 2032
10772, 3758, 3943, 3756, 3180
10773, 3758, 3748, 3189, 3446
10774, 2959, 1586, 1645,   63
10775, 2958, 1582, 2922, 2085
10776, 3767,  700,  693,  692
10777, 3113, 3756, 3943, 3770
10778, 3739, 3742,  174, 1064
10779, 3601, 3604, 1355, 1353
10780, 4197,  702,   96,  703
10781, 3862, 4085, 1117, 1116
10782, 3221, 3228, 3223, 3220
10783, 3228, 1356, 3223, 1357
10784, 3864, 3384, 3543, 1640
10785, 3640,  696,  689,  688
10786, 1922, 1793,  437,  438
10787, 3602, 3603, 3601, 3222
10788, 3223, 3689, 3228, 1357
10789, 3737, 3113, 3742, 3743
10790, 4195,  706,  705,   93
10791, 3479, 3950, 3739, 3738
10792, 3289, 3479, 3741, 3502
10793, 3654,   98,   97,  702
10794, 2002, 3292, 2029, 3290
10795, 3291, 3290, 3750, 3292
10796, 3635, 3654, 3638, 1911
10797, 4112, 3475, 3474, 3187
10798, 4107, 3476, 1358,  287
10799, 3949,  705,  704,   94
10800, 4089, 3476, 1323,  287
10801, 3486, 3095, 1483, 1459
10802, 3476, 1323, 4107, 3979
10803, 3477, 3487, 3486, 3484
10804, 3960, 4000, 3962, 1934
10805, 4000, 4231, 1961, 3855
10806, 3752,  706,  698,  705
10807, 2959,  708,    5,   63
10808, 4054, 1558, 1630, 1562
10809, 3050, 1374, 1399, 1398
10810, 3805, 1933, 3962, 1960
10811, 3962, 3050, 1960, 4231
10812, 3164,  707,  699,  706
10813, 3341, 3063, 4009, 3061
10814, 3349, 3517, 3575, 3133
10815, 1674, 2922, 1582, 1586
10816, 3140, 3540, 3142, 3141
10817, 3289, 3479, 3293, 3291
10818, 3556,  687, 3560,   66
10819, 3401, 3405, 3406, 3905
10820, 3186, 3251, 1277, 1278
10821, 3816, 1041, 3817, 3525
10822, 3525, 3816, 1041, 1068
10823, 3668, 2963, 3355, 3276
10824, 3442, 3856, 3143, 3443
10825, 3407, 3975, 3523, 3669
10826, 3834,  988, 4151, 3359
10827, 3863, 3864, 3384, 3385
10828, 4196,  703,   96,   95
10829, 4145, 3834, 4151, 3835
10830, 4151,  989, 3829,  988
10831, 1923, 1789,  436,  437
10832, 4151, 3238,  989,  962
10833, 3834, 3245,  987,  988
10834, 3010, 3829, 3818, 3238
10835, 3951, 4151,  962, 3238
10836, 3348, 3790, 3022, 3575
10837, 3552, 3348, 3790, 3022
10838, 4195,  706, 3752,  705
10839, 3789, 3792, 3553, 1970
10840, 4196,  703,   95,  704
10841, 3024, 4053, 1943, 1942
10842, 3022, 3489, 3790, 3344
10843, 3025, 3024, 3585, 3344
10844, 3343, 3072, 3753, 3073
10845, 3173, 1167, 3303, 3174
10846, 3304, 3173, 3303, 3174
10847, 3039,  705,  698,  697
10848, 3949,   94,  704,   95
10849, 1473, 1497, 4226, 1472
10850, 3230, 3936, 3174, 1163
10851, 3780, 3768, 1502, 1478
10852, 4180, 1737, 1744, 1742
10853, 3688, 2031, 2030, 2004
10854, 3782, 4117, 1173, 3303
10855, 3782, 1205, 4094, 1229
10856, 1168, 3174, 3230, 3303
10857, 4195,   93,  705,   94
10858, 4117, 1167, 3303, 3244
10859, 3303, 4117, 1173, 1167
10860, 3904, 3782, 1173, 3909
10861, 3704, 2031, 2004, 2005
10862, 3488, 3904, 3305, 3903
10863, 2085, 1586,  373, 1582
10864, 4084, 2010, 2037, 2036
10865, 4094, 3247, 1230, 3248
10866, 3488, 3845, 3377, 3711
10867, 3305, 3903, 4117, 3244
10868, 3710, 3361, 1182, 3377
10869, 3782, 3303, 4094, 3904
10870, 3299, 3475, 3471, 3646
10871, 3473, 3247, 3248, 3249
10872, 4094, 3377, 3248, 1206
10873, 3969, 3404, 1650, 4101
10874, 3939, 1476, 1477, 1501
10875, 3747, 4101, 1120, 1121
10876, 3406, 3405, 3404, 4101
10877, 3200, 3392, 3390, 3194
10878, 3745, 3437, 3440, 3393
10879, 3426, 4204, 3559, 3558
10880, 4144,   65,   66,  687
10881, 3556,   66, 1618,   67
10882, 3664,  693,  700,  701
10883, 3905, 3747, 1121, 4101
10884, 4024, 1771,  187,  186
10885, 3437, 3747, 3745, 1093
10886, 4194, 4193, 4079, 4186
10887, 3560, 3724, 4144, 3722
10888, 4144,  687, 3722,  694
10889, 4079, 3336, 1261, 1262
10890, 4144, 1591, 1592, 1647
10891, 4083, 4079, 3336, 4186
10892, 3308, 3312, 3314, 1522
10893, 3334, 1287, 1286, 1263
10894, 2064, 4163, 2065, 4167
10895, 3560, 4144, 1713, 1591
10896, 3314, 1607, 1630, 1628
10897, 4104, 3797, 1406, 1405
10898, 4219, 4216, 2013, 2014
10899, 4156, 2037, 2064, 2063
10900, 1562, 2089, 4054, 2090
10901, 3334, 3335, 3337, 1079
10902, 4192, 4190, 1078, 1105
10903, 3334, 1052, 3335, 1079
10904, 3606, 2006, 3608, 2033
10905, 4083, 4186, 3336, 1052
10906, 4019, 3239, 3063, 1882
10907, 4221, 1986, 1985, 1959
10908, 4174, 1449, 1474, 1473
10909, 3997, 1428, 1429, 1453
10910, 3859, 3856, 4103, 1658
10911, 4019, 3239, 1878, 3240
10912, 4223, 2011, 1984, 1985
10913, 1518,  359,  358, 1559
10914, 3082, 3856, 3399, 3141
10915, 3808, 1758, 1930, 1760
10916, 3859, 4103, 1122, 1571
10917, 3143, 3405, 3856, 3142
10918, 2942, 3528, 3009, 2937
10919, 3519, 3131, 3716, 3432
10920, 3815, 1245, 1221, 1222
10921, 3800, 3998, 3801, 4148
10922, 3693, 3954, 3798, 4105
10923, 3998, 1982, 4100, 4037
10924, 3998, 4100, 1982, 1955
10925, 3998, 1956, 4100, 1955
10926, 3778, 3312, 3784, 3921
10927, 3914, 1519, 1617,  358
10928, 3914, 1617, 1555, 1559
10929, 4096, 1495, 1494, 1470
10930, 3914, 3985, 1519, 1518
10931, 3983,  360, 1569, 1623
10932, 3984, 1623,  361,  360
10933, 3984,  360, 1516, 1517
10934, 4148, 1981, 4037, 3945
10935, 3310, 1614, 1550, 1617
10936, 4013, 1829, 1746, 1742
10937, 4216, 2040, 2039, 2013
10938,  388,  362,  363, 1514
10939,  388, 1514, 2100,  362
10940, 3801, 3998, 3794, 3995
10941, 4138, 3998, 3995, 3794
10942, 3313, 3926, 3309, 3314
10943, 4058, 2041, 4059, 2014
10944, 3786, 1474, 3785, 1498
10945, 4167, 3923, 2064, 4163
10946, 4163, 3923, 2064, 2091
10947, 4227, 4167, 3311, 4226
10948, 3308, 3313, 3311, 3309
10949, 3366, 2076, 2050, 2077
10950, 3925, 2090, 4055, 2091
10951, 3923, 2091, 4163, 3926
10952, 3993, 3991, 3987, 3785
10953, 3994, 3992, 3944, 4037
10954, 3801, 3998, 3995, 4037
10955, 4174, 3785, 1474, 1450
10956, 3991, 1426, 3995, 1427
10957, 4156, 2036, 4084, 2037
10958, 1744, 3809, 4180, 3240
10959, 4171, 4100, 1982, 4037
10960, 2101, 1514, 2100,  388
10961, 4171, 3995, 4037, 3992
10962, 3887, 1508, 1483, 1484
10963, 3785, 3993, 3988, 3987
10964, 1965, 1964, 1395, 1938
10965, 3890, 4069, 3717, 1850
10966, 4171, 4100, 3995, 4170
10967, 3987, 3996, 3997, 1427
10968, 3994, 4037, 3944, 3766
10969, 3996, 3793, 3794, 3801
10970,  388, 1513, 2101, 1514
10971, 3655,  364,  389, 1532
10972, 1513, 1512,  364, 2101
10973, 3858, 2102, 2103,  390
10974, 4138, 4170, 3995, 4100
10975, 3821, 2966, 1629, 3824
10976, 1991, 1965, 1964, 1395
10977, 3463, 3469, 3468, 3464
10978, 1622,  176,   16,  177
10979, 1622,  177,  955,  176
10980, 3321, 3651, 4129, 1306
10981, 3651, 3321, 3469, 1306
10982, 3735,  952,  955,  954
10983, 3519, 3129, 3513, 3714
10984,  953, 4034, 4035,  954
10985,  151, 4118, 1593, 4035
10986, 3287, 3652, 3590, 3596
10987,  178, 3760,  955,  954
10988, 3465, 4182, 3755, 3597
10989, 1593, 4035,  906,  151
10990, 3415, 3039, 3416, 3704
10991, 3582, 4118, 1644, 3578
10992,  401,   13,  934,  154
10993, 4092, 4017, 3989, 3772
10994,  933,  156,  155, 1733
10995, 2921, 3170, 3724, 1665
10996, 3990, 3991, 4174, 4170
10997, 3519, 3714, 3716, 3518
10998, 1589,  240,   16, 1118
10999, 1666,  176, 1589,   16
11000, 3737, 3743, 3750, 3748
11001, 3879, 3599,  172,  173
11002, 3896, 1719,  410,  411
11003, 4128, 1672, 1619, 1715
11004, 3420, 3733, 3768, 3672
11005, 3169, 4155, 3772, 3924
11006, 3972, 3671, 3924, 4017
11007, 1587,  239,  240, 1119
11008, 3924, 3166, 3169, 3170
11009, 3108, 3114, 3111, 3110
11010, 3745, 1118, 1091, 1092
11011, 3181,  174,  949,  173
11012, 3894, 3574,  941,  902
11013, 3674, 3522, 3675, 1411
11014, 1436, 3091, 1460, 3093
11015, 3271, 3602, 3224, 4065
11016, 3074, 3679, 3677, 3075
11017, 3226, 3101, 3977, 3979
11018, 3478, 1039, 1038, 1012
11019, 3273, 3522, 3940, 3675
11020, 3421, 1344, 1343, 1320
11021, 3316, 2924, 3661, 2985
11022, 1534,  294, 1342, 1343
11023, 3522, 3675, 1435, 3940
11024, 3119, 3120, 3547, 3546
11025,  962,  186,  961, 3951
11026, 3423, 1296, 1320, 1319
11027, 3887, 1484, 3096, 1485
11028, 1512, 3907, 1488, 1487
11029, 4203, 1534,  294, 1342
11030, 3539, 1095, 1068, 1069
11031, 3621, 3268, 3429, 3139
11032, 2936, 3624, 4065, 3224
11033, 3825, 1344, 4108, 4166
11034, 1375, 1374, 1399, 3050
11035, 3859, 1658, 1571, 1565
11036, 3905, 1121, 1094, 1095
11037, 3436, 1094, 1067, 1068
11038, 3139, 3376, 3375, 3620
11039, 4131, 1124, 1565, 1123
11040, 4090, 1345, 3977, 1346
11041, 1124, 1565, 1564, 4131
11042, 4090, 1663, 4108, 1546
11043, 3275, 3101, 3106, 3977
11044, 3220, 3226, 3980, 3221
11045, 3324, 1995, 2022, 2021
11046, 3234, 2049, 3253, 2022
11047, 3979, 3226, 3101, 3221
11048, 3655,  390, 1532,  389
11049, 4107, 3977, 3979, 1346
11050, 3977, 3978, 1322, 1321
11051, 3226, 1322, 3977, 3978
11052, 4058, 2015, 2014, 1988
11053, 3857, 1510, 3152, 1511
11054, 3713, 3836, 3838,  959
11055, 3713,  959, 3838, 3514
11056, 3907, 2102, 2075, 2076
11057, 4058, 4056, 4057, 1988
11058, 3834,  987, 3838,  960
11059, 3320, 3973, 3580, 4050
11060, 3524, 3354, 3666, 3665
11061, 4166, 3407, 1683, 3408
11062, 3882, 1706, 1712, 1714
11063, 3367, 1662, 4002, 3884
11064, 3266, 3883, 4109, 3881
11065, 3713, 1788, 3836,  959
11066, 3834,  961, 4151,  988
11067, 2973, 3266, 2974, 3881
11068, 3975, 1624, 1676, 1538
11069, 3838,  986, 3514,  959
11070, 4109, 2974, 3881, 1707
11071, 4166, 1540, 1343, 1344
11072, 4166, 1683, 1540, 1698
11073, 1545, 1344,  292, 1540
11074, 1543,  288,  289, 4230
11075, 4166, 3421, 1343, 4068
11076, 4068, 1343, 1534, 1342
11077, 4108, 1546, 1663, 1545
11078, 4230, 4107, 1360,  288
11079, 3225, 3094, 3102, 3103
11080,  291, 1345, 1545, 1546
11081, 3540, 3906, 3142, 1700
11082, 1546, 4108, 4090, 1345
11083, 4230,  290, 1548, 1346
11084, 4108, 1345, 1545, 1344
11085, 4166, 1545, 1540, 1344
11086, 4230, 1360, 4106, 1543
11087, 1637, 4106, 1543, 1548
11088, 4106, 1543, 1548, 4230
11089, 4230,  289, 1548,  290
11090, 4090, 1346, 4230, 1548
11091, 4019, 1882, 1829, 1878
11092, 4090, 1546, 1655, 1663
11093, 2971, 3252, 3318, 3532
11094, 4177, 1456, 4140, 4147
11095, 3699,  684, 4205, 4147
11096, 4058, 2015, 2042, 2041
11097, 4122, 4134, 1133, 1132
11098, 1560,  302, 1334, 1335
11099, 4119, 1132,  227, 1131
11100, 4177, 4147,  677, 1457
11101, 3632, 3616, 3639, 3039
11102, 3417, 3632, 3616, 3615
11103, 1556, 1134, 4091, 4011
11104, 3948, 4197, 1922, 1949
11105, 4220, 1399, 3050, 1400
11106, 4011, 4010, 1135, 1134
11107, 4012, 1334, 1560,  302
11108, 3852, 4135, 1333, 1332
11109,  170, 1890, 3643, 1852
11110, 1852,   15,  170, 1890
11111, 3032, 1136, 1551, 1135
11112, 3852, 1613,  303, 1616
11113, 4011, 1549, 1556,  224
11114, 4129, 1306, 1330, 1329
11115, 1604, 1330,  306,  307
11116, 1600, 1329,  308, 1328
11117, 4031, 1881, 4032, 1852
11118, 3000, 4031, 3259, 3896
11119, 4113, 1086, 4006, 1085
11120, 4124, 1304, 1305, 1328
11121, 3338, 4007, 1304, 4008
11122, 3302, 1139, 1140, 1567
11123, 3823, 1329, 1604, 1600
11124, 3470, 3597, 3595, 3651
11125, 3469, 1331, 1330, 1307
11126, 1881, 4032, 3499, 4031
11127, 3754, 1328, 1600, 1602
11128, 3933, 3932, 3530, 4125
11129, 4116, 1304, 1327, 1303
11130, 3259, 4099, 3896, 1853
11131,  168, 1873,  936,  169
11132, 1604,  307, 1600, 1329
11133, 3054, 3052, 3258, 3051
11134, 3622, 2999, 1873, 3550
11135, 4005, 4007, 3338, 4008
11136, 4007, 1304, 4008, 3931
11137, 1327, 3754,  309, 1328
11138, 1300, 1277, 3935, 4088
11139, 4220, 3804, 4221, 4222
11140, 3649, 1327, 1326, 1303
11141, 3387, 1147, 1153, 1148
11142, 3962, 1934, 1961, 1960
11143, 3889, 3643,  170,  937
11144, 3164, 3767,  699,  700
11145, 3167, 3715, 2958, 2058
11146, 3688, 3712, 2030, 2057
11147, 4116, 1327, 1304, 1328
11148, 4231, 1961, 3855, 1988
11149, 3544, 1669, 1635, 1667
11150, 3164, 3767, 3424,  699
11151, 4195, 2030, 3752, 3712
11152, 2031, 3165, 3610, 3704
11153, 3688, 3164, 3752, 3712
11154, 3388, 1147,  243,  242
11155, 2958, 3169, 1582, 2086
11156, 3163, 3164, 3767, 3424
11157, 3864,  214, 3866, 1585
11158, 3116, 1119, 1118, 3745
11159, 3385, 1147, 1146, 1152
11160, 3935, 1159, 1276, 4086
11161, 1573,  218, 1140, 1141
11162, 1567,  219, 1561, 1139
11163, 4083, 1239, 1263, 1262
11164, 3110, 1589, 1587, 1641
11165, 3933,  217, 1142, 1577
11166, 3933, 1573, 1577, 1635
11167, 1587, 1119, 1118, 3116
11168, 1557, 1138,  220,  221
11169, 3464, 1606, 1330, 1331
11170, 3396, 1642, 1648, 3109
11171, 3113, 3758, 3748, 3943
11172, 1551, 1549, 4011,  223
11173, 3393, 3395, 3112, 3396
11174, 3344, 4062, 1862, 4053
11175, 4012, 4093, 4135, 4091
11176, 3470, 3032, 1137, 3467
11177, 3852, 1549, 4011, 1551
11178, 4201, 1127, 1341, 1340
11179, 1126, 1127, 3670, 3117
11180, 4203, 3669, 1342, 3670
11181,  295, 4203,  294, 1342
11182, 4201,  296, 1340, 1341
11183, 3639, 3629, 3616, 3632
11184, 3974, 3670, 4203, 3117
11185,  293, 1343, 1534, 1540
11186, 3975, 3669, 4203, 3974
11187, 3703, 3696, 1406, 1430
11188, 3721, 3694, 1953, 4146
11189, 3721, 4146, 1953, 1954
11190, 3042, 3533, 3330, 3046
11191, 3117, 1538,  232, 1530
11192, 3801, 4148, 3945, 4146
11193, 3351, 1124, 1125, 1564
11194, 3274, 4166, 4109, 3408
11195, 3720, 3644, 3695, 3719
11196, 4131, 3398, 3399, 1661
11197, 3690, 3725, 3637, 3691
11198, 3675, 1434, 3689, 3604
11199, 3087, 3522, 1436, 3091
11200, 3086, 3088, 3094, 2989
11201, 3674, 3706, 1412, 1388
11202, 3675, 3940, 1434, 1435
11203, 3602, 3271, 3562, 4065
11204, 3145, 1461, 3212, 1462
11205, 3882, 1706, 1714, 1711
11206, 3674, 3566, 1387, 1411
11207, 3272, 3675, 3604, 3566
11208, 3675, 3604, 3566, 1410
11209, 3973, 3364, 1675, 1679
11210, 1439, 3213, 2925, 1440
11211, 3212, 3093, 1437, 1461
11212, 3235, 2024, 2023, 1997
11213, 4131, 1565, 1661, 1658
11214, 3522, 3940, 1435, 3091
11215, 3132, 1919, 1915, 1906
11216, 3235, 2023, 1996, 1997
11217, 3375, 1097, 3353, 3352
11218, 4140, 4023, 1479, 1480
11219, 3605, 3610, 3416, 3607
11220, 3231, 3521, 2024, 3217
11221, 3576, 3716, 1904, 3518
11222, 3358, 1071, 3376, 1044
11223, 4022, 3413, 3733, 3768
11224, 3426, 3768, 4022, 4023
11225, 3364, 1625, 1679, 1682
11226, 3705, 1566, 1563,  392
11227, 1456, 1432, 4140, 4147
11228, 3703, 1431, 4140, 1455
11229, 3617, 3611, 3615, 3631
11230, 3699, 3614,  683, 4147
11231, 4022, 1479, 4140, 4023
11232, 3929, 3792, 1971, 3930
11233, 3552, 3022, 3790, 3024
11234, 1566, 2105,  393,  392
11235, 3705, 1566, 1659, 1660
11236, 3365, 1625, 1539, 1675
11237, 3575, 1860, 3788, 3790
11238, 3857,  366, 1531, 1535
11239, 3929, 4069, 1945, 1782
11240, 4043, 4067, 1858, 3788
11241, 3348, 3576, 4067, 3788
11242, 3325, 1414, 3098, 3097
11243, 4053, 1943, 1778, 3789
11244, 1860, 3789, 3790, 4053
11245, 3792, 3553, 1970, 3930
11246, 3907, 2075, 2074, 1488
11247, 3575, 3489, 3133, 1905
11248, 3792, 3930, 1970, 1971
11249, 2967, 2969, 2971, 2970
11250, 3575, 3517, 1895, 1905
11251, 3063, 1909, 3061, 1900
11252, 3705, 3973, 3580, 3791
11253, 3907, 1488, 3151, 2075
11254, 3150, 2075, 3151, 2048
11255,  381, 1550, 3911, 1552
11256, 3233, 3234, 3366, 2993
11257, 3986, 1493, 1494, 1518
11258, 3146, 2993, 3150, 3253
11259, 3914, 4212, 3310, 1519
11260, 3919, 3951, 1863, 3239
11261, 4054, 1632, 1562, 1630
11262, 1276, 1300, 1277, 3935
11263, 3308, 1611, 1614,  356
11264, 3312, 3311, 3786, 1498
11265, 3935, 1153, 1154, 4115
11266, 4115, 3935, 1300, 4086
11267, 1599, 1325, 4115, 4038
11268, 4092, 1634, 1568, 1632
11269, 4088, 3251, 3935, 3934
11270, 1574, 2088,  376,  375
11271, 4199, 4187, 4160, 4193
11272, 4225, 2012, 2038, 2011
11273, 3776, 1500, 1501, 1525
11274, 3776, 1524, 3784, 1500
11275, 1980, 3945, 1981, 4146
11276, 3934, 4088, 3159, 3647
11277, 3312, 3314, 1522, 1523
11278, 4115, 3968, 3387, 1148
11279, 3436, 1067, 1094, 1093
11280, 4115, 3968, 1148, 1599
11281, 3826, 1576, 1657, 1572
11282, 3077, 3118, 2937, 2935
11283, 3826, 1659, 1566, 1572
11284, 3856, 1691, 1656, 1658
11285, 3330, 3906, 3533, 3332
11286, 1580, 2108,  396,  395
11287, 3506, 4028, 4029, 3504
11288, 4036, 1947, 3501, 1974
11289, 3890, 3717, 4069, 3492
11290, 3906, 1700, 1709, 1697
11291, 3744, 1092, 1065, 1066
11292, 3966, 2104, 2103, 2077
11293, 1119, 3747, 1120, 1093
11294, 1583, 1120,  238,  239
11295, 3929, 4069, 3492, 1945
11296, 4152, 4150, 1737, 4180
11297, 3929, 1945, 3492, 1972
11298, 3175, 2084, 2057, 2058
11299, 3610, 2060, 2059, 2033
11300, 1973, 3492, 3490, 3491
11301, 2922, 2959, 1586, 1645
11302, 1263, 1262, 3334, 4083
11303, 2959, 3664, 4066,  708
11304, 3608, 2034, 2033, 2007
11305, 3430, 3491, 3492, 3285
11306, 3664,  701, 1645, 1592
11307, 3492, 3490, 1972, 1973
11308, 4144, 1647, 1713, 1591
11309, 2086, 3169, 2087, 3771
11310, 3403, 3433, 3493, 3908
11311, 3557, 3558, 1527, 3673
11312, 3390, 3345, 3520, 3496
11313, 2983, 3219, 2108, 2109
11314, 3391, 3109, 3219, 2983
11315, 2921, 1665, 1647, 1639
11316, 2959,  372, 1586,   63
11317, 4051, 2080, 3345, 2107
11318, 3771, 2086, 2059, 2060
11319, 4195, 2030, 3712,   93
11320, 3724, 1665, 1713, 1647
11321, 3724, 3560, 3559, 3722
11322, 3345, 3496, 2081, 2080
11323, 3345, 3219, 1580, 2108
11324, 3204, 1790, 1794,  205
11325, 3903, 3205, 3848, 3244
11326, 1645, 1674, 1586, 2922
11327, 2959,    5,   91, 2084
11328, 3204, 1790, 3210, 1841
11329, 3203, 3846, 3204,  981
11330, 3848, 3847, 1175, 4183
11331, 3300, 3848, 3243, 3360
11332, 1176, 3847, 3848, 3903
11333, 2085,  373, 1586,  372
11334, 3164,  700,  699,  707
11335, 3204, 1841, 3210, 3206
11336, 1166, 1171, 3243, 3244
11337, 1582, 2086,  374,  373
11338, 3704, 2032, 2031, 2005
11339, 3847, 1175, 4183, 4165
11340, 3778, 3923, 4055, 4156
11341, 1568, 4054, 2089, 4209
11342, 4083, 1024, 4080, 1025
11343, 3169, 3170, 2921, 1639
11344, 1636, 4155, 1634, 3772
11345, 4092, 3777, 1670, 1632
11346, 3772,  375, 1574, 1578
11347, 2086, 1582,  374, 1578
11348, 3241, 3239, 3240, 1878
11349, 4092, 3988, 4209, 3989
11350, 4092, 4209, 1568, 3772
11351, 4209, 3989, 2061, 2088
11352, 3778, 4054, 3921, 1632
11353, 3359, 3976, 3829, 3011
11354, 4055, 4209, 2062, 2089
11355, 4168, 4209, 3989, 2062
11356, 4209, 3989, 2088, 3772
11357, 3712, 2057,   92, 2030
11358, 2932, 3663, 3080, 2933
11359, 3080, 4013, 1746, 1199
11360, 3334, 4083, 1051, 4178
11361, 3660, 3663, 1749, 1201
11362, 3080, 2933, 1749, 1888
11363, 3168, 1224, 3076, 1223
11364, 3944, 2035, 2034, 2008
11365, 3799, 3998, 4071, 4073
11366, 3925, 3926, 3314, 1628
11367, 3246, 1224, 3663, 1225
11368, 4054, 1632, 1568, 1562
11369, 4137, 4222, 1425, 4218
11370, 3925, 2091, 1558, 2090
11371, 3312, 3786, 3785, 1498
11372, 2008, 2009, 3944, 2035
11373, 3806, 4224, 4139, 1957
11374, 4224, 4139, 1957, 1984
11375, 3011, 3010, 3829, 3818
11376, 4076, 3594, 4187, 4181
11377, 3287, 1056, 3288, 1057
11378, 3171, 3426, 3559, 3558
11379, 3596, 3597, 3652, 4182
11380, 3465, 3596, 4129, 3822
11381, 3596, 3321, 3651, 4129
11382, 3590, 3652, 3287, 3288
11383, 1558, 2091,  379,  378
11384, 3994, 3954, 3996, 3801
11385, 4055, 2090, 2063, 2064
11386, 3308,  355, 1607, 1611
11387, 3652, 3287, 3288, 1057
11388,  355, 3308, 1607, 1522
11389, 3652, 3597, 1084, 4182
11390, 3314, 1523, 1607, 1522
11391, 3314, 1607, 1628, 1611
11392, 4044,  419, 1941, 1940
11393, 4207, 4063,  421, 1740
11394, 3921, 1607, 1605, 1630
11395, 3313, 4167, 3786, 3311
11396, 4063, 1939,  421,  420
11397, 4044, 1940,  420,  419
11398, 1402, 4137, 3807, 1401
11399, 4202, 4207, 1738, 4063
11400, 4207, 1939, 1368, 1369
11401, 3308, 3309, 1614, 1611
11402, 4202, 3410, 1741, 1367
11403, 3410, 3412, 1366, 1367
11404, 4207, 1738, 1740,  330
11405, 4176, 2011, 2010, 1984
11406, 4207,  421,  331, 1740
11407, 4213, 4227, 3913, 4214
11408, 3970, 4016, 3944, 3994
11409, 4046, 1368, 4063, 1940
11410, 3062, 1883, 3063, 1900
11411, 3763, 4130, 3447, 3444
11412, 3761, 1652, 3920, 4142
11413, 3913, 2067, 2094, 2093
11414, 4213, 2041, 2067, 2040
11415, 3453, 3582, 3578, 4118
11416, 3803, 1758, 1818, 1820
11417, 3445, 3761, 3578, 3583
11418, 3906, 3142, 3910, 3332
11419, 4227, 4163, 3913, 3311
11420, 3309, 1614, 1611, 1552
11421, 4214, 4212, 3913, 4213
11422, 3859, 4131, 1565, 1123
11423, 3582, 1672, 3578, 1644
11424, 3983, 1518, 1559,  359
11425, 3415, 3704, 3752, 3039
11426, 3719, 3644, 3695, 3721
11427, 3721, 1774, 1926, 1780
11428, 3698, 3644, 3697, 1870
11429, 3698, 1870, 3697, 1810
11430, 3725, 3636, 1840, 3720
11431, 3725, 3720, 1840, 1838
11432, 3169, 3019, 2958, 2921
11433, 3164, 3752, 3712,  706
11434, 3712, 3175, 3164, 4066
11435, 1592, 2921, 1674, 3664
11436, 3712, 4066,   92, 2057
11437, 3704, 3688, 2031, 3165
11438, 3611, 3416, 3632, 3947
11439, 3690, 3697, 3691, 3955
11440, 4210, 2017, 2043, 2016
11441, 3691, 3811, 1383, 3812
11442, 3983, 2097,  384, 2096
11443, 3047, 2046, 2072, 2045
11444, 3691, 1382, 3797, 1810
11445, 3692, 1406, 3691, 1407
11446, 3691, 1406, 3797, 1382
11447, 4206,  228, 1130, 1131
11448, 1570, 1132,  226,  227
11449, 3655, 2102, 2101, 1512
11450, 4121, 1337, 4206, 1336
11451,  227,  300, 4119, 4206
11452, 4206,  299,  228,  227
11453, 4206,  299,  300, 1337
11454, 2099, 2072, 1491, 1490
11455, 3904, 3909, 3377, 4094
11456, 4094, 1206, 3248, 1230
11457, 3474, 4041, 3831, 4112
11458, 3187, 3247, 3249, 1254
11459, 3146, 2925, 1463, 1439
11460, 3247, 1230, 3249, 1254
11461, 3907, 1512, 1488, 2074
11462, 1511, 1512, 3152, 3857
11463, 3303, 4117, 3904, 3782
11464, 3230, 3782, 1168, 3303
11465, 2019, 1992, 1418, 1417
11466, 1465, 1464, 2047, 1440
11467, 2020, 2019, 1417, 1993
11468, 3152, 3787, 1486, 1510
11469, 3904, 3909, 1178, 3362
11470, 3154, 3296, 3304, 3172
11471, 3147, 3787, 3152, 3867
11472, 3747, 1094, 1120, 1093
11473,  234, 1124, 1565, 1564
11474, 3398, 1677, 1693, 1661
11475,  235, 1123, 1571, 1565
11476, 3085, 3398, 3263, 3399
11477, 3365, 1625, 3364, 3867
11478, 1571, 1122, 1575, 4103
11479, 3859, 1571, 1122, 1123
11480, 3365, 3867, 1535, 1625
11481, 4101, 1653, 1579, 1575
11482, 3857, 3365, 3867, 1535
11483, 3155, 3384, 3864, 3385
11484, 3301, 3535, 1114, 1113
11485, 3530, 3534, 1115, 1114
11486, 3301, 3530, 1114, 3535
11487, 3405, 1575, 1656, 1653
11488, 4103, 1575, 1571, 1656
11489, 3301, 3302, 1140, 1573
11490, 3350, 3352, 3351, 3398
11491, 3932, 3544, 3933, 3161
11492, 3396, 1119, 1583, 1587
11493, 3112, 3395, 3628, 3109
11494, 1120, 1583, 1579, 3969
11495, 4230, 4106, 1360, 4107
11496, 4029, 1795, 1948, 1947
11497, 4090, 4230, 4106, 1548
11498, 4090, 4108, 1663, 3106
11499, 1583,  239, 1587, 1119
11500, 3350, 3085, 2956, 3375
11501, 4024, 3241, 1744, 1771
11502, 3404, 1650, 1687, 1686
11503, 3739, 3950, 3480, 1037
11504, 3742, 3943,  174, 3770
11505, 4090, 1548, 4106, 1655
11506, 3742, 3854, 1064, 3853
11507, 4106, 1536, 3482, 1542
11508, 4106, 3105, 1655, 1542
11509, 3481, 3476, 1358, 4107
11510, 3759, 1666, 1681, 1622
11511, 2979, 1642, 3109, 1588
11512, 3739, 1064,  174, 1037
11513, 1589, 1118, 1587,  240
11514, 3109, 1642, 1648, 1649
11515, 3449, 4130, 3450, 4061
11516, 3113, 3116, 3854, 3392
11517, 4118, 3453, 3760, 4035
11518, 1118, 3116, 1589, 1587
11519, 4118, 1644, 3578, 1595
11520, 3178, 3188, 3179, 3183
11521, 3448, 3189, 3680, 3451
11522, 3762, 1595, 3578, 3763
11523, 1594, 4118, 1593,  151
11524, 3293, 3194, 3927, 3928
11525, 3735, 3736, 3453, 3579
11526,  153, 3763, 3762,  927
11527, 3760, 3583, 1622, 3579
11528, 4118,  913, 1594,  920
11529, 4118, 1595, 1594, 1644
11530, 3759, 3583, 3579, 1622
11531,  154,  927,  934, 1596
11532, 4130, 3449, 3444, 3763
11533, 3761, 3578, 3583, 1672
11534, 3582, 1671, 1678, 1644
11535, 3577, 3736, 3445, 3579
11536, 3761, 4142,  405, 1621
11537, 3582, 1644, 4118, 1671
11538, 1594,  152, 1595,  920
11539, 3582, 4118, 3760, 1671
11540, 3111, 3757, 3759, 3920
11541, 3452, 3449, 3732,  919
11542,  955, 3735, 3760, 3579
11543, 3756,  175, 3579,  952
11544,  934, 1596,  401,  154
11545, 3450, 1729, 1733, 1732
11546, 3447, 1735, 1734, 1731
11547, 1733,  933,  156, 1730
11548, 4061, 1733,  933,  934
11549, 1595, 3763, 3762,  153
11550, 3759, 3579, 3756,  176
11551, 3756,  176, 3579,  175
11552, 3760, 1620, 1622, 1678
11553, 3180,  952, 3579, 3735
11554, 3339, 1006, 3625, 1005
11555, 3682, 3684, 3208, 3685
11556, 1734,  399,  400, 1619
11557, 1735, 1596,  400,  401
11558, 3373, 3211, 3626, 3683
11559, 3687, 3210,  980, 1786
11560, 4035,  905,  950,  906
11561, 4101, 1650, 1579, 1653
11562, 3969, 1583, 1119, 1120
11563, 3687, 1781, 3339, 3900
11564, 3339, 3683, 1006,  979
11565, 3455, 3456, 3462, 3370
11566, 3116, 3854, 3393, 3745
11567, 3405, 1689, 1653, 1656
11568, 4101, 1121, 1579, 1120
11569, 3395, 3404, 1686, 1650
11570, 3457, 3339, 1775, 3900
11571,  237, 1121, 1579, 1575
11572, 4205,  684, 3425,  685
11573, 3425, 3424,  692,  691
11574, 3171, 3724, 3673, 3558
11575, 4131, 3351, 1564, 1124
11576, 4011, 1556, 1549, 1616
11577, 3611, 3416, 3947, 3607
11578, 3699,  691, 3613, 3424
11579, 4091, 4161, 4135, 4010
11580, 4131, 1564, 1661, 1565
11581, 1082, 3820, 1083, 4159
11582, 3426, 4204, 3425, 3723
11583, 3468, 1331, 1307, 1308
11584, 3466, 1610, 1613, 1551
11585, 1551, 1135, 4011, 4010
11586, 3352, 1096, 3620, 1097
11587, 3859, 1096, 3352, 1123
11588, 2997, 3642, 3618, 3619
11589, 1885, 1873, 1890, 2999
11590, 2966, 1557, 1137, 1138
11591, 1332,  304, 3852, 3466
11592, 1551, 1610, 1553, 3466
11593, 3469, 3593, 3819, 1307
11594, 2966, 3755, 3821, 1138
11595, 3821, 1629, 1557, 1561
11596, 3821, 1629, 1561, 1631
11597, 3596, 3652, 4113, 4006
11598, 3092, 2989, 3094, 2984
11599, 3258, 2997, 3641, 2999
11600, 3642, 3574, 3182, 3893
11601, 3463, 3464, 3465, 3651
11602, 3258, 3259, 1885, 1886
11603, 2997, 3619,  914,  907
11604, 3653, 3326, 3338, 4110
11605, 3465, 3597, 3596, 4182
11606, 3852, 1549, 1551, 1613
11607, 3641, 4133, 1844, 1805
11608,  218, 1140, 1567, 1573
11609, 3770, 3116, 1118, 3854
11610, 3302, 4125, 1633, 1573
11611, 3854, 1092, 3745, 1091
11612, 3863, 1640, 3864, 1643
11613, 3087, 3522, 1412, 1436
11614, 3969, 3747, 1120, 1119
11615, 1581, 1577, 1142,  216
11616, 3393, 3745, 3969, 3396
11617, 3396, 1648, 1587, 1583
11618, 1091, 1064, 3770, 3854
11619, 3533, 3875, 3542, 4042
11620, 3864, 1581, 1143,  215
11621, 3863,  241, 3866, 1145
11622, 3388, 3385, 1147, 1146
11623, 3290, 3284, 2002, 3292
11624, 2028, 3289, 3294, 3292
11625, 3927, 3294, 2028, 2027
11626, 3438, 3816, 3323, 3441
11627, 3864, 1643, 1640, 1585
11628, 3543, 1142, 1581, 1577
11629, 3292, 3284, 2002, 2028
11630, 3383, 1646, 1673, 1664
11631, 1597, 3863, 3384, 3388
11632, 3863, 3866, 4018, 1145
11633, 3928, 3292, 3750, 2056
11634, 4152, 3809, 4180, 1744
11635, 3292, 3750, 2056, 2029
11636, 3192, 3478, 3191, 3193
11637, 2966, 1557, 3821, 1629
11638, 3941, 1999, 3214, 3491
11639, 3543, 1640, 1638, 1581
11640, 3384, 1646, 1640, 1597
11641, 3865, 4018, 1150, 1151
11642, 1667, 3544, 3754, 3160
11643, 4115, 1148, 1154, 1149
11644, 3646, 3156, 3536, 4003
11645, 3307, 3329, 3516, 3357
11646, 3216, 3491, 3941, 3214
11647, 3700, 3679, 1918, 1903
11648, 3650, 1325, 1301, 1302
11649, 1612, 1608,  310, 1326
11650, 4115, 1148, 3387, 1153
11651, 3124, 3541, 1365, 3125
11652, 3295, 3294, 3942, 3283
11653, 1146,  242, 3388, 3863
11654, 3509, 3479, 3502, 3950
11655, 3941, 3942, 3494, 2026
11656, 2010, 4171, 2009, 4084
11657, 4038, 1325,  311, 1599
11658, 4115, 1325, 1599, 1324
11659,  244, 1148, 1599, 1149
11660, 3806, 4224, 3807, 4139
11661, 3124, 3541, 3125, 3069
11662, 4074, 1378, 3807, 3796
11663, 4219, 4221, 4224, 4222
11664, 4044, 3585, 4046, 1941
11665, 1325, 4038,  311, 1326
11666, 4176, 4138, 4100, 4170
11667, 3161, 3160, 3159, 3932
11668, 4071, 3981, 1928, 4072
11669, 4005, 4082, 4114, 4112
11670, 4037, 2009, 4171, 3992
11671, 4148, 1955, 3998, 1982
11672, 3823, 1669, 1600, 1631
11673, 3481, 3482, 3104, 4106
11674, 3822, 3301, 4182, 4006
11675, 3823, 1329, 1600, 1328
11676, 4125, 1633, 1635, 1669
11677, 3301, 1573, 1140, 1141
11678, 3822, 3301, 4125, 3302
11679, 1347, 4107, 1323, 1346
11680, 3470, 1083, 3597, 1110
11681, 3181, 4049,  946,  949
11682, 4089, 3979, 1299, 1323
11683, 3228, 1357, 3476, 1356
11684, 3465, 3464, 3824, 3651
11685, 3032, 1553, 1136, 3467
11686, 3262, 4141, 4048, 1722
11687, 3226, 3101, 3275, 3977
11688, 1536, 1543, 1360,  323
11689, 4230, 1543,  288, 1360
11690, 3368, 3886, 3887, 3096
11691, 3261, 3183, 3182, 3599
11692, 3485, 1482, 3483, 1506
11693, 3681, 3450, 3680, 1729
11694, 3916, 3892,  924,  917
11695,   22, 1543,  288,  289
11696, 3105, 1655, 1542, 1684
11697, 3681, 4048, 3915, 1726
11698, 4002, 1547, 1662, 1684
11699, 4106, 1360, 4107, 3481
11700, 4106, 1542, 1637, 1536
11701, 3104, 3967, 3105, 3482
11702, 1537,  321,  371,   24
11703, 3916, 3895,  917,  916
11704, 3773,  351, 1525, 1526
11705, 3184, 3680, 3188, 4048
11706, 4088, 3935, 3251, 1277
11707, 3967,  370, 1626,  371
11708, 3573, 3572, 3934, 3159
11709, 3572, 3935, 4172, 3936
11710, 3104, 3979, 3476, 4107
11711, 1543,  323,   22,  288
11712, 3250, 3648, 1302, 1303
11713, 3251, 3934, 1301, 1302
11714, 3251, 1302, 3648, 3934
11715, 2899, 2969, 2968, 3067
11716, 3482, 1361, 1537,  322
11717, 3105, 1684, 1542, 1626
11718, 1547, 3105, 1626, 1684
11719, 3727, 3678, 3126, 1865
11720, 3967, 1506, 3483, 1507
11721, 3727, 3125, 3840, 1364
11722, 3727, 1364, 3840, 4052
11723, 3275, 4108, 3825, 3977
11724, 3285, 3502, 3501, 3506
11725, 3476,  287, 4107, 1323
11726, 2991, 3098, 3127, 3097
11727, 1745, 3728, 1902, 3541
11728, 3123, 3122, 3706, 3125
11729, 3367, 1708, 1662, 1685
11730, 3486, 3095, 1459, 3089
11731, 3481, 3482, 1360, 1361
11732, 3482, 1537, 1542, 1536
11733, 3105, 1695, 1655, 1684
11734, 3884, 1685, 1662, 1544
11735, 3589, 3026, 1293, 3665
11736, 3886, 3887, 3096, 1485
11737, 1547, 1507,  370, 3483
11738, 4001, 1684, 1662, 1695
11739, 3860, 3096, 1461, 1485
11740, 1510,  367, 3857, 3867
11741, 3893, 3895, 3916, 3917
11742,  368, 3884, 1508, 1544
11743, 3748, 3943, 3179, 3740
11744, 3140, 3255, 3330, 3540
11745, 3888, 1711, 1696, 1705
11746, 4002, 1508, 1544,  369
11747, 3267, 3269, 3829, 1017
11748, 3355, 3354, 3665, 3666
11749, 3528, 3589, 1246, 3077
11750, 3981, 1832, 1764, 1768
11751, 3730, 3735, 3731,  951
11752, 3768, 1503, 1502, 1478
11753, 3729, 4126, 3734, 3895
11754, 4168, 2034, 3944, 2035
11755, 4017, 4155, 4092, 3777
11756, 3779, 1452, 1477, 1476
11757, 4126,  911, 3734,  910
11758, 3894, 4126,  945, 4049
11759, 3454, 3731, 3730, 3735
11760, 2092, 3926,  379, 1554
11761, 3993, 4084, 4016, 3992
11762, 3780, 3779, 3972, 3733
11763, 3778, 4054, 4092, 4209
11764, 3777, 1601, 1605, 1524
11765, 1609, 1526,  351, 3671
11766, 4126, 3731,  947,  948
11767,  905, 4035, 4034,  912
11768, 3181, 4049, 3600,  946
11769,  350, 1526, 1609, 1527
11770, 4034,  905, 3731,  950
11771, 2996, 1193, 4025,  968
11772, 3599, 3600,  943,  946
11773, 3733, 3768, 1478, 1479
11774, 3167, 2031, 3610, 2058
11775,   64,  694, 1592,  701
11776, 2996,  968, 4025,  192
11777, 4025, 1194, 1193,  272
11778, 1674, 3664, 1645, 1592
11779, 3175, 2959, 4066, 2084
11780, 4025,  191,  272,  192
11781, 2943, 3011, 3009, 3267
11782, 4025,  272,  191,  967
11783, 4025, 1194,  967,  968
11784, 3974, 3351, 3353, 1125
11785, 3408, 3883, 1703, 1707
11786, 3973, 1694, 1679, 1660
11787, 3548, 3034, 1223, 1222
11788, 3869, 3872, 4033, 1822
11789, 3869, 1761, 1759, 1819
11790, 3531, 1714, 1708, 1696
11791, 3844, 3869,  974, 4179
11792, 1662, 1708, 4001, 1695
11793, 3364, 1679, 1625, 1675
11794, 3751, 1541, 1625, 1682
11795, 3365, 1625, 1535, 1539
11796, 4179, 3870,  973, 1000
11797, 1001, 1002, 4179, 4075
11798, 3365, 1675, 3364, 1625
11799, 3857, 1539, 1535, 1531
11800, 4078, 4179, 1000, 3870
11801, 3647, 1152, 3387, 3386
11802, 3647, 1157, 4172, 1158
11803, 4115, 3647, 3935, 1153
11804, 3241, 1744, 1771, 1878
11805, 4088, 3251, 3934, 1301
11806, 4230, 1346, 4107, 1347
11807, 3825, 3421, 3422, 1320
11808, 4106, 1637, 1542, 1655
11809, 4106, 1536, 1543, 1360
11810, 1576, 2106, 2107,  394
11811, 3647, 3387, 1152, 1153
11812, 3935, 3936, 1158, 4172
11813, 4175, 4084, 2011, 2038
11814, 4168, 4016, 3944, 3970
11815, 3995, 3794, 1427, 1426
11816, 3144, 1487, 3152, 1486
11817, 4073, 1760, 1930, 1929
11818, 3791, 1563, 1675, 1539
11819, 3826, 1657, 1659, 1572
11820, 1930, 3806, 3803, 3808
11821, 4229, 4170, 4174, 1450
11822, 4137, 4218, 4223, 4222
11823, 4210, 2044, 1444, 1468
11824, 3884, 3787, 3751, 1509
11825, 3751, 1510, 1541, 1509
11826, 4002, 1547, 1544, 1662
11827,  370, 3483, 1626, 1547
11828, 4210, 2044, 2043, 2017
11829, 4058, 4057, 3775, 2015
11830, 4057, 4231, 1422, 3855
11831, 3775, 2016, 2042, 2015
11832, 4228, 1444, 4210, 2017
11833, 4057, 3775, 4210, 1445
11834, 3652, 4169, 1057, 3288
11835, 2966, 1627, 3464, 3467
11836, 4227, 4175, 4226, 4225
11837, 3911, 2094,  382,  381
11838,  220, 1561, 1138, 1557
11839, 1138, 1557, 3821, 2966
11840, 3824, 1604, 1606, 1629
11841, 1601, 1605, 1524,  353
11842, 3780, 3972, 1501, 3774
11843, 1221, 3033, 3034, 3809
11844, 4004, 4125, 3301, 3530
11845, 3777, 1601, 1670, 1632
11846, 3170, 1665, 1639, 1668
11847, 3773, 1603, 1601,  352
11848, 3464, 1330, 3824, 3651
11849, 3464, 3824, 1606, 1629
11850, 2966, 3467, 3470, 1137
11851, 2997, 3598, 3574, 3550
11852, 3182, 3574, 3598, 3600
11853, 4151, 3829, 3359,  988
11854, 3598,  942, 3574,  939
11855, 3447, 3578, 4128, 3763
11856, 3892, 3734,  917, 3895
11857, 2105, 1572, 1566,  393
11858, 3178, 3736, 3729, 3180
11859, 3454, 3734, 3452, 3732
11860, 3892, 3734,  918,  917
11861, 3746, 2106, 2107, 1576
11862, 3351, 1676, 1661, 1564
11863, 3449, 4061, 3450,  926
11864, 3732,  926, 3450,  925
11865, 3935, 3936, 1276, 1159
11866, 3128, 3264, 3265, 3883
11867, 3936, 4172, 1163, 1158
11868, 3572, 3936, 4172, 3174
11869, 3875, 1701, 1692, 1709
11870, 3827, 1657, 1692, 1659
11871, 3472, 3187, 3247, 3249
11872, 4042, 1692, 1690, 1709
11873, 3230, 4094, 3782, 3303
11874, 3927, 3496, 2054, 2081
11875, 3065, 2110,  406,  405
11876, 2106,  393,  394, 1572
11877, 4151, 3238, 3829,  989
11878, 3705, 3580, 2104, 3791
11879, 3230, 3936, 1163, 1164
11880, 3448, 3451, 3680, 3450
11881, 3448, 3681, 3450, 3680
11882, 3734, 3895,  910,  917
11883, 4155, 1668, 1670, 1603
11884, 3773, 1670, 4155, 3777
11885, 3773, 3776, 3774, 1525
11886, 3452,  919, 3732,  918
11887, 3452,  918, 3732, 3734
11888, 4051, 2080, 2106, 2079
11889, 3452,  911, 3731,  912
11890, 3744, 3745, 1092, 1093
11891, 4163, 3926, 2091, 2092
11892, 4227, 4167, 4163, 3311
11893, 4213, 2067, 3913, 2066
11894, 4227, 4175, 2038, 4167
11895, 3926, 4163, 3309, 2092
11896, 3738, 3965, 3737, 3741
11897, 3671, 1668, 1609, 1665
11898, 3673, 1527, 1615, 1609
11899, 3778, 3988, 4017, 3784
11900, 3724, 1615, 1713, 1665
11901, 4155, 3671, 3170, 1668
11902, 3407, 1624, 1677, 1676
11903, 3739, 1037,  174,  173
11904, 3671, 3673, 1526, 3774
11905, 3916, 3918,  916,  923
11906, 3392, 3854, 3742, 3853
11907, 3974, 3975, 3523, 3353
11908, 3114, 1590, 1680, 1642
11909, 3975, 3398, 1676, 3407
11910, 3974, 3975, 3351, 1538
11911, 3442, 3085, 3082, 3399
11912, 3351, 3353, 1125, 1124
11913, 4131, 3351, 1124, 3352
11914, 4131, 3398, 3352, 3399
11915, 4144,  694, 1592,   65
11916, 2921, 1647, 1592, 1674
11917, 3351, 3398, 1661, 1676
11918, 3901, 3900, 1835, 1871
11919, 3686, 1839, 3900, 1871
11920, 4116, 1327, 3754, 3649
11921, 3754, 1669, 1602, 1600
11922, 3680, 1726, 1729, 1725
11923, 3494, 2054, 2053, 2027
11924, 3338, 3321, 1282, 3326
11925, 3404, 1687, 1650, 1653
11926, 4004, 3301, 3535, 3530
11927, 4128, 1715, 1619, 1596
11928,  238, 1120, 1583, 1579
11929, 3822, 3302, 4125, 1631
11930, 4004, 4006, 4005, 3535
11931, 3822, 3823, 1631, 4125
11932, 3014, 3016, 3009, 3709
11933, 4055, 2091, 2090, 2064
11934, 3527, 3478, 3891, 1012
11935, 3832, 3027, 3828, 1018
11936, 3829, 3238, 3012,  990
11937, 3673, 1526, 3774, 1502
11938, 3672, 3673, 3774, 1502
11939,  991, 3828, 3033,  990
11940,  399, 1734,  405, 1621
11941, 3921, 1523, 3784, 1524
11942, 3778, 3988, 3783, 4156
11943, 3927, 2055, 2082, 2081
11944, 3777, 3784, 1524, 3921
11945, 3109, 1588, 1642, 1649
11946, 3778, 3777, 3921, 3784
11947, 3219, 1580, 1584, 1651
11948, 3446, 1731,  407, 1728
11949, 3778, 3925, 4055, 3923
11950, 3110, 1642, 1680, 1641
11951, 2979, 2110,  405,  398
11952, 3740,  408, 3188, 3189
11953, 3773, 1603, 1670, 1601
11954, 3599,  173,  946,  172
11955, 3420, 3166, 3924, 3170
11956, 3778, 3988, 4209, 4092
11957, 3774, 3671, 3972, 3776
11958, 3904, 3303, 4094, 3305
11959, 2063, 2064, 4156, 4055
11960, 3303, 1168, 3174, 1167
11961, 4117, 3244, 1172, 1167
11962, 3299, 3472, 3304, 3473
11963, 2959,   63,  701,  708
11964, 3120, 3547, 3546, 3676
11965, 3626, 3683, 3625, 3373
11966, 3305, 4117, 3904, 3303
11967, 3202, 3205, 3300, 3848
11968, 3111, 1118, 1589,  176
11969, 1169, 3782, 1168, 3230
11970, 3174, 1162, 1168, 1163
11971, 2979,  398, 1590, 1588
11972, 3277, 3587, 3423, 3177
11973, 3450,  933, 1730,  932
11974, 3034, 4013, 4180, 3240
11975, 3014, 4013, 3240, 4019
11976, 3709, 3168, 3034, 4013
11977, 4013, 1742, 1746,  277
11978, 1199,  277, 4180, 4013
11979, 4013, 4019, 1829, 3240
11980, 3188, 1725,  409, 1722
11981, 3761, 3583, 1681, 1672
11982, 3920, 1666, 1652, 1681
11983, 3557, 3673, 3724, 3558
11984, 3557, 3673, 1527, 1615
11985, 4180, 4013, 1742, 3240
11986, 3673, 1527, 1609, 1526
11987, 1173, 3909, 1178, 3904
11988,  701,  694, 1592, 3664
11989, 2921, 1647, 1674, 1639
11990, 3573, 3251, 3648, 3934
11991, 3175, 4066, 3664, 3164
11992, 3688, 2031, 2057, 2030
11993, 3762, 4061,  926,  927
11994, 3398, 3407, 1677, 1676
11995, 3250, 4114, 3648, 1303
11996, 3444, 3448, 3450, 3451
11997, 3647, 3386, 1157, 1152
11998, 4118, 1671, 1594, 1593
11999, 4035, 3453, 3760,  954
12000, 3172, 3386, 1156, 1157
12001, 4203, 3669, 4068, 1342
12002,  980, 1790, 1786, 3210
12003, 3761, 1681, 1652, 1621
12004, 1035, 3298, 1008, 1034
12005, 3204, 3210, 3202, 3206
12006, 3204, 3206, 1877, 1841
12007, 4130,  401, 1736,  934
12008, 3759, 1681, 3761, 3583
12009, 3685, 1786, 3210, 3687
12010, 3172, 1162, 4172, 1157
12011, 4128,  400, 1734, 1735
12012, 3813, 3265, 3084, 3264
12013, 3934, 4088, 3650, 3159
12014, 3154, 3172, 3304, 3157
12015, 4038, 1612, 1673, 1599
12016, 3763, 1715, 4128, 1596
12017,  955,  176, 3579, 1622
12018, 3754, 1608, 3160, 3649
12019, 3760,  955, 1622, 1620
12020, 3920,  176, 1666, 3759
12021, 3274, 3275, 3266, 4109
12022, 4128, 4130, 1596, 1735
12023, 3920, 1666, 1680, 1652
12024, 4130,  401, 1735, 1736
12025, 3763, 1596,  153, 1595
12026, 3856, 3142, 1689, 1691
12027, 2974, 1663, 1699, 1707
12028, 3350, 2956, 3083, 3354
12029, 4061, 4130,  934,  927
12030, 3399, 1693, 1658, 1661
12031, 2931, 3554, 2936, 3246
12032, 4130, 1735,  401, 1596
12033, 3158, 3387, 3159, 3383
12034, 3301, 1113, 4006, 3535
12035, 3395, 1648, 3109, 3396
12036, 2981, 3199, 3333, 3017
12037, 3433, 1688, 1654, 1651
12038, 3263, 3813, 1693, 1704
12039, 3155, 3154, 4003, 3156
12040, 3161, 3530, 3156, 3534
12041, 3908, 1686, 1688, 1651
12042, 3402, 3437, 3440, 3439
12043, 3544, 4125, 1635, 1669
12044, 3933, 3544, 1635, 1577
12045, 3265, 1704, 3264, 3813
12046, 3910, 3906, 1697, 1700
12047, 3132, 3281, 1909, 4009
12048, 3265, 3883, 1704, 1703
12049, 2983, 3109, 3219, 1588
12050, 3737, 3943,  173,  174
12051, 4154,  682, 3614,  683
12052, 3910, 1689, 1697, 1687
12053, 3701, 4154, 3811, 3810
12054, 3701, 3614, 4154, 3810
12055, 3518, 3517, 1919, 1904
12056, 3142, 1700, 1689, 1691
12057, 4154, 3614, 3702, 4147
12058, 3699, 4177, 3425, 3418
12059, 3861, 3850, 3851, 2052
12060, 3540, 1702, 1710, 1701
12061, 3614,  682, 3810,  689
12062, 3319, 3884, 3751, 3367
12063, 3417, 3613, 3699, 3616
12064, 4002, 3483, 1507, 1547
12065, 2934, 2897, 2935, 2977
12066, 3367, 4001, 4002, 1662
12067, 3408, 1707, 1703, 1683
12068, 3141, 1693, 1702, 1691
12069, 3617, 3702, 3418, 3703
12070, 3615, 3614,  689, 3616
12071, 3209, 3473, 3346, 3474
12072, 3751, 1685, 1541, 1682
12073, 3096, 1461, 1485, 1460
12074, 3203, 3204, 3847, 1794
12075, 3881, 1712, 1707, 1699
12076, 2054, 3927, 2027, 3494
12077, 3089, 3940, 3091, 1459
12078, 3683, 3211, 3626, 1006
12079, 3249, 3187, 3474, 3472
12080, 3204, 1877, 1794, 1790
12081, 3263, 1704, 1693, 1677
12082, 1271, 3589, 1294, 3587
12083, 3358, 1044, 3665, 1071
12084, 3208, 3210, 1841, 3206
12085,  980, 3846, 3683, 1007
12086, 3208, 3210, 3687, 3685
12087, 4013, 1742, 3240, 1829
12088, 3540, 1702, 1701, 1700
12089, 3910, 3906, 3435, 1697
12090, 3168, 3076, 1224, 3118
12091, 3082, 3856, 3442, 3399
12092, 3264, 1710, 1706, 1711
12093, 3264, 1704, 1706, 1710
12094, 3062, 3075, 1900, 3061
12095, 4019, 3063, 1883, 1882
12096, 2932, 4019, 3016, 3062
12097, 4020, 1383, 3811, 3812
12098, 4021, 4154, 1408, 1409
12099, 3531, 3888, 3882, 1714
12100, 3334, 4189, 4178, 1051
12101, 3811, 3691, 1407, 3692
12102, 3701, 3617, 3637, 3692
12103, 3107, 1699, 1695, 1708
12104, 3107, 1663, 1695, 1699
12105, 4189, 4191, 1077, 4198
12106, 1043, 3376, 3269, 1042
12107, 3542, 4042, 3827, 1657
12108, 3816, 1068, 1067, 1041
12109, 4020, 1384, 3811, 1383
12110, 3725, 1816, 3697, 1868
12111, 3861, 2052, 2053, 2079
12112, 3401, 3905, 3436, 3539
12113, 4103, 1571, 1658, 1656
12114, 3443, 3539, 3620, 1096
12115, 4192, 3334, 4189, 1287
12116, 3405, 4103, 1656, 1575
12117, 3703, 3702, 1431, 1407
12118, 3813, 1702, 1704, 1710
12119, 3813, 1702, 1693, 1704
12120, 1383, 3811, 3691, 1407
12121, 3430, 3929, 3492, 3490
12122, 3669, 1343, 4068, 1342
12123, 3883, 1712, 1703, 1707
12124, 3432, 3717, 4069, 4067
12125, 3200, 3112, 3392, 3397
12126, 3737, 3943, 3113, 3748
12127, 3787, 1485, 3145, 1486
12128, 4012, 1560, 4122, 1556
12129, 3746, 3345, 3433, 1580
12130, 3874, 1711, 1705, 1710
12131, 3758, 3769, 3748, 3446
12132, 3108, 3115, 3114, 3065
12133, 3769, 3748, 3446,  406
12134, 3957, 1186, 1813, 3958
12135, 3531, 1714, 1699, 1708
12136, 3888, 1714, 1696, 1711
12137, 3662, 1682, 1696, 1685
12138, 2954, 3022, 3552, 3023
12139, 3367, 3884, 1685, 1662
12140, 3899, 3958, 1187, 1186
12141, 3456, 3899, 3898, 3957
12142, 3883, 1703, 1712, 1706
12143, 3881, 1712, 1699, 1714
12144, 4044, 4062, 3585, 1941
12145, 3598, 3600,  942,  943
12146, 1185, 1186, 1813, 3957
12147, 3956, 1209, 3899, 1210
12148, 3450, 3447, 1732, 4130
12149, 3510, 3839, 3527,  985
12150, 1368,  329, 4202, 4207
12151, 3184, 3893, 3916, 3897
12152, 4130, 3450, 1733, 1732
12153, 3763, 1596,  927,  153
12154, 4061, 3450,  933, 1733
12155, 3510, 3514, 3516, 3839
12156, 3449,  926, 3732,  919
12157, 4127, 1716,  402, 1717
12158, 4099, 1716,   26,  402
12159, 3894,  945,  944,  942
12160, 4061, 3450,  926,  933
12161, 3878,  172, 3879, 2998
12162, 3052, 1719, 3896, 1716
12163, 4055, 2064, 3923, 2091
12164, 3878, 2998,  171,  172
12165, 3879, 3738,  173,  172
12166, 3741, 3879, 3749, 3260
12167, 3262,  409,  410, 1722
12168, 1798,   26, 4030, 1948
12169, 3480, 1011, 1038, 1037
12170,  927,  153,  920, 3762
12171, 3480, 3478, 1038, 1011
12172, 4030, 1853, 3896,  411
12173, 3896,  411, 1716, 1719
12174, 4055, 2090, 2089, 2063
12175, 4032, 1797, 1852, 1881
12176, 3497, 3499, 3501, 3506
12177, 3498, 3879, 3878, 3738
12178, 3261, 3879, 3878, 3260
12179, 4127, 1718,  404, 1804
12180, 2971, 3252, 3532, 3100
12181, 3295, 3494, 3942, 3294
12182, 3129, 3518, 3279, 3714
12183, 4127, 1717,  403, 1718
12184, 3513, 3707, 3515, 3511
12185, 3191, 3526, 3438, 3478
12186, 3526, 3438, 3816, 3323
12187, 4127, 1717,  402,  403
12188, 3527, 1040, 3817, 3816
12189, 4053, 1943, 1942, 1772
12190, 2997, 2998, 3642, 3598
12191, 2979, 1590,  398,   25
12192, 2090, 2089,  377, 1562
12193, 3526, 1039, 3527, 1040
12194, 1718,  161,  404,  928
12195, 3527, 3478, 1012, 1039
12196, 1012,  985, 3891, 3527
12197, 3813, 3814, 3540, 1710
12198, 4031, 1853, 1881, 1852
12199, 1804,  928, 1718,  404
12200, 3960, 4000, 3963, 1373
12201, 3590, 3321, 3653, 3326
12202, 2966, 3755, 3465, 3821
12203, 4127, 1718, 4111, 3053
12204, 1121, 1579, 1575, 4101
12205, 3258, 1885, 2999, 1844
12206, 4126, 3731,  904,  947
12207, 4111, 1804,  928, 1718
12208, 3053, 1721, 1720, 1717
12209, 4127, 1804, 1872, 4133
12210, 3707, 3717, 1889, 3708
12211, 1948,   26,  412, 1798
12212, 3627, 3389, 2056, 2083
12213, 1028, 4181, 1029, 4075
12214, 2966, 3470, 3465, 3597
12215, 3879,  173, 3965, 3599
12216, 3284, 3880, 2002, 1975
12217, 3217, 3521, 1998, 3214
12218, 3713, 3838, 3515, 3514
12219, 4099, 1886, 1872, 1921
12220, 4142, 1652,   25, 1621
12221, 3286, 1029, 3658, 3288
12222, 3597, 4182, 1111, 1084
12223, 4031, 1852, 3259, 1853
12224,  160,  928, 1718, 1721
12225, 3053, 1721, 1717, 1718
12226, 3894,  902,  941,  903
12227, 3737,  174, 3742, 3943
12228, 3889,  171, 3877, 3878
12229, 3282, 4036, 1974, 1973
12230, 4132, 1721,  930, 1724
12231, 3053, 4132, 3918, 3051
12232, 3261, 3182, 3642, 2998
12233, 3182, 3894, 3574, 3600
12234, 4141, 1723, 1722, 1719
12235, 3965, 3737, 3740, 3943
12236, 3446,  406,  407, 1731
12237, 3915, 1724,  930,  931
12238, 3108, 2979, 2983, 3065
12239, 3219, 1588, 1649, 1584
12240, 2109,  397, 1588, 1584
12241, 3878, 3738,  172,  171
12242, 2979, 1590, 1642, 1588
12243, 3853, 1065, 1064, 1038
12244, 4142, 1652, 1590,   25
12245, 3878, 3876, 3738,  171
12246, 3792, 1970, 1943, 1944
12247, 1724, 1721,  930,  159
12248, 4048, 1723, 1726, 1722
12249, 4132, 1721, 1724, 1720
12250, 3889, 3000, 3877, 3643
12251, 4132, 1724, 1723, 1720
12252, 1943,  417, 1942, 1772
12253, 3889, 2998,  940,  171
12254, 3892,  918, 3732,  925
12255, 3915, 1724,  931, 1727
12256, 3714, 1892, 1894, 1854
12257, 3451, 1732, 1731, 1728
12258, 3222, 1250, 3224, 3602
12259, 3141, 3813, 1702, 1693
12260, 3189, 1728,  408, 1725
12261, 3451, 1729, 3450, 1732
12262, 3219, 1651, 1584, 1649
12263, 3290,  408, 2029,  409
12264, 3222, 3221, 1298, 1299
12265, 3223, 3222, 3229, 3601
12266, 1727, 1724,  931,  158
12267, 3451, 1732, 1728, 1729
12268, 3942, 2027, 2026, 2000
12269, 4130, 4061, 1733, 3450
12270, 3915, 1724, 1727, 1723
12271, 3750,  408,  407, 2056
12272, 3563,  284, 3603, 1251
12273, 3915, 1727, 1726, 1723
12274, 3603, 1275,  284,  285
12275, 3681, 1729, 1726, 1730
12276, 3681,  924,  925,  932
12277, 3681, 3680, 1726, 1729
12278, 3681, 3450,  932,  925
12279, 3908, 3433, 3628, 1651
12280, 3689, 3228, 1357, 3487
12281, 3447, 4128, 3761, 1734
12282, 1350, 1351, 3564, 3565
12283, 3681, 1726, 3680, 4048
12284, 3452, 3735, 4034, 3731
12285, 3578, 1644, 1715, 1595
12286, 3223, 3222, 1275, 1299
12287, 3515, 3714, 3837, 1854
12288, 3601, 3229, 3689, 3604
12289, 3680, 1729, 1728, 1725
12290, 1730, 1727,  932,  157
12291, 2921, 1639, 3170, 1665
12292, 3942, 2026, 1999, 2000
12293, 3681, 3450, 1729, 1730
12294, 1736,  934,  155, 1733
12295, 3019, 3164, 3664, 3767
12296, 3451, 3450, 3447, 1732
12297, 3450, 1733, 1730,  933
12298, 4144, 2921, 3724, 1647
12299, 3671, 1609, 3724, 1665
12300, 3757, 4142, 3115,  405
12301, 3730, 3180,  952,  949
12302, 3627, 2083, 2056,  407
12303, 3724, 3673, 1615, 1609
12304, 3219, 1584, 1580,  396
12305, 1584, 2109,  397,  396
12306, 3447, 1732, 1735, 1731
12307, 1731, 1734, 3446,  406
12308, 3627,  406, 2083,  407
12309, 4126,  904, 3731,  911
12310, 3908, 1697, 1688, 1687
12311, 3450, 1729, 1730, 1733
12312, 3171, 2921, 3170, 3724
12313,  934, 4130, 1733, 1736
12314, 3426, 4204, 3558, 4023
12315, 3170, 3671, 3673, 3724
12316, 4061,  934, 4130, 1733
12317, 2921, 3724, 1647, 1665
12318, 3760, 1620, 1671, 1593
12319, 4169, 1030, 3657, 3459
12320, 3856, 4103, 1658, 1656
12321, 3761, 1621,  405, 1734
12322, 3652, 3287, 1084, 3597
12323, 3627, 2083, 3065, 3389
12324,  405, 3446, 3757, 1734
12325, 4130, 1735, 1732, 1736
12326, 3906, 1701, 1700, 3540
12327, 3913, 2093, 2066, 2067
12328, 1621,  399,   25,  405
12329, 3109, 3110, 3396, 1642
12330, 3454, 3732, 3452, 3449
12331, 3395, 1650, 3969, 3404
12332, 4213, 4227, 2039, 2066
12333, 1619, 4128,  400, 1734
12334, 4218, 4226, 4215, 1448
12335, 4213, 4096, 4214, 4212
12336, 4213, 2041, 2068, 2067
12337, 4130, 1596,  401,  934
12338, 4059, 4216, 2014, 2041
12339, 3681,  932, 3450, 1730
12340, 1736,  934,  401,   13
12341, 4215, 4226, 1472, 1448
12342, 3017, 3941, 3495, 3521
12343, 4196, 4197, 3948, 1949
12344, 3654,    8,   97,   98
12345, 1810,  343, 1382, 1381
12346, 3635, 1793, 1911, 1876
12347, 3841, 3842, 3657, 3461
12348, 3629, 3948, 3635, 3634
12349, 3697, 1868, 1870, 1838
12350, 4197,   96,  702,   97
12351, 3459, 3592, 3657, 4169
12352, 3910, 1689, 3142, 1700
12353, 4033, 1187, 3899, 3958
12354, 3657, 3461, 3459, 1003
12355, 3841, 3461, 3657, 1003
12356, 3635, 1789, 1793, 1876
12357, 3654, 1911, 1793,   98
12358, 4169, 3288, 3657, 1030
12359, 3720, 1840, 1785, 1789
12360, 4021, 3726, 3810, 4070
12361, 3948, 1923, 1949, 1922
12362, 3633, 3695, 3719, 3720
12363, 3635, 1789,  437, 1793
12364, 4217,  675, 1385,  674
12365, 4070,  688, 3810,  681
12366, 3654, 1922,  438, 1793
12367, 3690, 3698, 3697, 3955
12368, 3644, 1836, 1838, 1870
12369, 3540, 1700, 3142, 1702
12370, 3140, 3540, 3330, 3332
12371, 3640, 3636, 3635, 4102
12372, 1821, 3726, 1866, 3812
12373, 3701, 3692, 3811, 3702
12374,  347, 1801,  346, 1385
12375, 3812, 1821,  345, 1816
12376, 1385, 4070, 4020, 4021
12377, 1808, 1381, 1380,  342
12378, 3810,  681,  689,  682
12379, 3195, 3194, 3193, 3392
12380, 3279, 3138, 1896, 1916
12381, 3718,  434,  435, 1780
12382, 3785, 1475, 3784, 1499
12383, 3490, 3930, 1998, 3214
12384, 3295, 3190, 3201, 3199
12385, 3431, 4067, 3432, 3929
12386, 1810, 1381, 1808,  343
12387, 3797, 1406, 1381, 1382
12388, 3725, 1838, 1840, 1868
12389, 3634, 1924, 1923, 1789
12390, 4029, 3890, 1791, 1947
12391, 4043, 1858, 4067, 1782
12392, 3725, 1866, 1816, 1868
12393, 3982, 1808, 1812, 1834
12394, 3922, 2006, 1980, 2007
12395, 3721, 1954, 1953, 1927
12396, 1927, 1768,  433, 1774
12397, 3432, 3717, 4067, 3716
12398, 3289, 3196, 3285, 3283
12399, 4074, 1378, 3794, 1402
12400, 3794, 1402, 1403, 1427
12401, 1927, 1926, 1774,  433
12402, 4176, 4138, 4137, 4139
12403, 3432, 4069, 3717, 3492
12404, 3795, 1814,  341, 1379
12405, 3835, 3279, 3837, 3537
12406, 1946, 1791, 1787, 3890
12407, 3684, 3248, 3377, 3902
12408, 3845, 3685, 1869, 1841
12409, 4100, 1983, 1982, 1956
12410, 3210, 3846,  980, 1790
12411, 3960,  425, 1934,  426
12412, 3208, 1841, 3845, 3206
12413, 4087, 1421, 1396, 1397
12414, 1374, 3050, 3961, 3962
12415, 3960, 1935, 1934,  425
12416, 3960, 1767, 1374,  336
12417, 3805, 1932, 1958, 1931
12418, 3957, 3456, 3462, 3457
12419, 3687, 1839, 3900, 3685
12420, 3843, 3885, 3844, 3958
12421, 3999, 1936, 1372, 1396
12422, 1990, 1420, 1419, 1395
12423, 3937,  332, 1370,  422
12424, 3960, 4000, 1373, 1374
12425, 3682, 3208, 3687, 3685
12426, 3474, 3831, 3475, 4112
12427, 3961, 1762, 3049, 1767
12428, 1932, 1931, 1757,  428
12429, 4165,  206,  257,   17
12430, 1824, 1757, 3049, 1820
12431,  426, 3961, 3960, 1767
12432, 4165, 1845,  256,  257
12433, 3805, 1959, 1932, 1933
12434, 4165,   17,  257,  207
12435, 3847, 3204, 3206, 1877
12436,  205, 3846,  981, 3204
12437, 3952, 3298, 4040, 1034
12438, 3848, 1175, 3847, 1176
12439, 4165, 1794,  257,  206
12440, 4165,  207,  257, 1175
12441, 4000, 3962, 1398, 1374
12442, 1394, 1393, 1939, 1369
12443, 3963,  424, 1784,  334
12444, 3203,  981, 3204, 1794
12445, 3943,  174, 3770,  175
12446, 3943, 3737, 3740, 3748
12447,  331,  421, 1369, 1370
12448, 4228, 1444, 1420, 1445
12449, 3183, 3879, 3965, 3599
12450, 2072, 2045, 2071, 1491
12451, 3178, 3183, 3179, 3181
12452, 3189, 3446,  407, 1728
12453,  421,  422, 1370,  331
12454, 3627, 3928, 2056, 3389
12455, 3627, 3748, 3769,  406
12456, 4063, 1740, 1738,  420
12457, 4044,  419,  420, 1743
12458, 3113, 3627, 3748, 3769
12459, 1938,  422, 1370,  421
12460, 3509, 3950, 3480, 3479
12461, 1391, 4046, 1392, 1367
12462, 4009, 3341, 3079, 3135
12463, 3941, 3214, 1999, 1998
12464, 3875, 4042, 1709, 1692
12465, 3332, 3142, 3540, 3906
12466, 4207, 4063, 1939,  421
12467, 3333, 3851, 3861, 3850
12468, 1816, 3691, 1383, 3812
12469, 3691, 3955, 3797, 1406
12470, 3797, 3798, 1404, 1405
12471, 3793, 1380, 3797, 1404
12472, 4202, 1741,  329, 1367
12473, 4063, 1738, 1743,  420
12474, 1367, 1368,  329, 4202
12475, 3818, 4151, 3829, 3359
12476, 3818, 4151, 3951, 3238
12477, 1379, 3793, 3795, 3794
12478, 4202, 1738, 1741, 1743
12479, 1870, 3698, 3982, 1810
12480, 3793, 3982, 3797, 1380
12481, 3099, 3212, 1438, 3213
12482, 4228, 2016, 1990, 2017
12483, 4228, 1445, 4210, 1444
12484, 3985, 3986, 4097, 1494
12485, 4228, 2016, 1989, 1990
12486, 4087, 3855, 4057, 1421
12487, 3332, 3910, 3405, 3142
12488, 3012, 3829,  990, 1017
12489, 3188, 3262, 4048, 1722
12490, 3776, 3671, 3972, 4017
12491, 3776, 3777, 3784, 1524
12492, 3777, 1601, 1632, 1605
12493, 3281, 1906, 1909, 1898
12494, 3312, 1523, 3921, 3314
12495, 3061, 1917, 1900, 1909
12496, 3929, 1945, 1971, 1944
12497, 3132, 3281, 3280, 1906
12498, 3587, 3668, 2963, 3355
12499, 1366,  328, 3541, 3410
12500, 3133, 1905, 1908, 1915
12501, 3570, 4149, 3569, 1857
12502, 3515, 3714, 1854, 1892
12503, 3584, 1997, 1996, 1970
12504, 3621, 3376, 3620, 1069
12505, 3132, 1915, 1909, 1906
12506, 3245, 1014,  987,  988
12507, 3604,  318,  317, 1434
12508, 3669, 3421, 1343, 1319
12509, 2903, 2977, 2936, 3067
12510, 3570, 1899, 1856, 1857
12511, 3225, 3221, 3227, 3103
12512, 3836, 3834, 3838,  960
12513, 3423, 3421, 3668, 1319
12514, 1750, 1902, 3727, 3541
12515, 3728, 1884, 1745, 1902
12516, 3524, 3375, 3376, 1070
12517, 3884, 3887, 3886, 1509
12518, 3411, 1880, 1879, 1827
12519, 3318, 3888, 3257, 3882
12520, 3083, 2961, 3355, 3354
12521, 3669, 3421, 4068, 1343
12522, 3840, 1363, 1388, 1387
12523, 3975, 4068, 3669, 3407
12524, 3571, 1362, 1755,  324
12525, 3188, 3749,  409,  408
12526, 3123, 3678, 3727, 3676
12527, 3727, 1364, 1750, 1365
12528, 3051, 3262, 3897, 3054
12529, 3728, 3410, 3069, 3541
12530, 3054, 3897, 3051, 3642
12531, 3262, 3749, 3260,  409
12532, 1749,  279, 1200,  278
12533, 3188, 1722, 4048, 1725
12534, 3080, 1749, 3663, 1200
12535, 3676, 1903, 1865, 1899
12536, 3569, 1754, 1203, 1202
12537, 3897, 4132, 4141, 3051
12538, 3239, 1863, 1882, 1878
12539, 3279, 1916, 3518, 3138
12540, 3951, 1773, 1861, 1863
12541, 3281, 1882, 1898, 1909
12542, 4150, 1198, 1197,  276
12543, 1779,  185,  960,  184
12544, 3279, 1896, 1859, 1894
12545, 4141, 4132, 1720, 3051
12546,  961, 3951, 4151,  962
12547, 3951,  186,  961, 1773
12548, 3834,  988,  987,  961
12549, 3270, 3976, 3245, 3359
12550, 3919, 1863, 1861, 1898
12551, 4141, 1719, 3051, 1720
12552, 3342, 3061, 1917, 1920
12553, 3342, 3075, 3061, 1920
12554, 3259, 1853, 1852, 1885
12555, 3516, 3512, 3510, 3891
12556, 3079, 3061, 3342, 3075
12557, 3508,  958,  984,  957
12558, 3753, 3964, 1907, 1908
12559, 4098, 3964, 1908, 3489
12560, 4098, 3133, 1908, 1915
12561, 3342, 1917, 4098, 1912
12562, 1917, 4009, 3135, 1915
12563, 3837, 3537, 3834, 3835
12564, 3839,  987, 3838, 3245
12565, 3245, 1014, 3817, 3839
12566, 3136, 3015, 3280, 3281
12567, 1948,  412, 1795, 1798
12568, 3245, 2945, 3359, 3818
12569, 3488, 4094, 3377, 3248
12570, 3151, 2047, 2925, 2048
12571, 3716, 1855, 1893, 1891
12572, 3151, 1489, 2047, 2074
12573, 3858, 2102, 3907, 2103
12574, 3966, 2077, 3580, 2104
12575, 3150, 3151, 2925, 2048
12576, 3551,  935,  901,  900
12577, 3150, 2076, 2075, 2049
12578, 3622, 1890,  937,  169
12579, 3151, 2075, 2074, 2048
12580, 4127, 1804,  403, 1872
12581, 3968, 1599, 4038, 1673
12582, 4038,  311, 1326, 1612
12583,  163,  921, 1805, 1804
12584,  921, 1805, 1804, 3618
12585, 4038, 1612, 1599,  311
12586, 3618,  914,  922,  921
12587, 4038, 3383, 1673, 1664
12588, 3894, 3917, 3893, 3574
12589, 3362, 1847, 1802, 1803
12590, 3642, 3619, 3574, 3917
12591, 3622, 2999, 3643, 1890
12592, 3054, 3260, 3896,  410
12593, 1807,  936,  935,  168
12594, 4099, 1921,  402, 1853
12595, 3160, 4038, 1608, 1664
12596, 3643, 1852, 1890, 1885
12597, 3650, 4038, 1326, 1608
12598, 3650, 4038, 1325, 1326
12599, 3657, 1003, 3459, 1030
12600, 3239, 1882, 1863, 1898
12601, 3951, 1771, 1773, 1863
12602, 3845, 1847, 3711, 3206
12603, 4180, 1199, 1198,  277
12604, 1004, 3340, 3461, 3460
12605, 3455, 3460, 3374, 3459
12606, 3841, 3842,  975, 1002
12607, 3458, 3833, 3370, 3956
12608, 4152, 4180, 1737, 1744
12609, 4150, 1197, 1196,  275
12610, 4150,  276, 4180, 1198
12611, 3447, 3446, 1731, 1734
12612, 3449,  926, 3762, 4061
12613, 4024,  187, 1771, 1744
12614, 3451, 3680, 1729, 1728
12615, 3189, 3680, 3451, 1728
12616, 3951, 3241,  962, 1771
12617, 4152, 1744, 1737,  188
12618, 3763, 4128, 4130, 1596
12619, 3451, 3450, 1729, 3680
12620, 4024, 3241, 1771,  962
12621, 4150,  275, 1196,  274
12622,  189,  965, 4153,  274
12623, 2996,  193,  968,  192
12624, 2996, 4025, 1193,  271
12625, 3211, 1006, 3683, 1007
12626, 2996,  193, 1776,  969
12627, 2996,  192, 1875,  193
12628,  970, 3381,  194,  969
12629, 1137, 1553, 1557, 3467
12630, 3902, 3377, 1183, 3248
12631, 3868, 1756,  973,  972
12632, 3380, 3871,  971,  972
12633, 3873, 1188, 1822, 1189
12634, 1822,  266,  267, 1188
12635, 4199, 3335, 4160, 4161
12636, 3754, 1600, 3823, 1669
12637, 2996, 3381, 1192, 4027
12638, 3381,  194, 1776, 1766
12639,  268, 1190, 1766, 1825
12640,  270, 3381, 2996, 1776
12641, 4194, 4076, 4079, 4193
12642, 4091, 4010, 1134, 1107
12643, 3381, 3382, 1191, 4027
12644, 3335, 1081, 4161, 1080
12645, 3868, 1759, 1756, 1822
12646, 3873, 3870, 3872, 4200
12647, 1815,  265, 3958, 1186
12648, 3032, 1110, 3820, 3470
12649, 1187, 1819, 3958, 4033
12650, 3466, 3852, 4010, 1551
12651, 4199, 4093, 4135, 1309
12652, 4134, 4122, 1133, 4012
12653, 4161, 1108, 4162, 4010
12654, 3340, 1004, 1003,  977
12655, 3842, 4179, 3844,  975
12656, 3869,  974, 1759, 1761
12657, 3869, 1822, 1819, 1759
12658, 3466, 3464, 1331, 1610
12659, 3462, 3370, 3899, 3956
12660, 3178, 3189, 3448, 3758
12661, 3178, 3454, 3185, 3729
12662, 4118, 3453, 3762, 3578
12663, 4169, 3288, 1030, 1057
12664, 3894,  910, 4126, 3895
12665, 3842, 4075, 1002, 1029
12666, 3958, 1833, 1831, 1815
12667, 4014, 3536, 1087, 1060
12668, 3380,  196, 1756,  972
12669, 3894, 3917, 3574,  909
12670, 3182, 3600, 3181, 4049
12671, 3182, 3183, 3181, 3599
12672, 3900, 1781, 1775, 1837
12673, 3956, 1210, 1234, 1233
12674, 3339, 1775, 1781,  978
12675, 3339,  977, 1775,  978
12676, 3456, 3686, 3901, 3902
12677, 3847, 4165, 1176, 1175
12678, 3178, 3185, 3182, 3729
12679, 3932, 3931, 3649, 3648
12680, 3895, 3917,  909,  916
12681, 3885, 1769, 1765, 1833
12682, 3590, 3288, 3591, 3592
12683, 3652, 4182, 1085, 4006
12684, 3362, 1178,  254, 1826
12685, 3652, 3287, 1057, 1084
12686, 3658, 3288, 1029, 3657
12687,  259, 1181, 1823, 1826
12688, 3710, 1182, 3361, 1823
12689, 3362, 1847, 1910, 1802
12690, 1178, 3362,  254, 1177
12691, 3596, 3652, 3597, 3287
12692, 3595, 3287, 3597, 1083
12693, 3362, 1802, 1910, 1826
12694, 3652, 1057, 4169, 1058
12695, 3362,  255, 1177, 1803
12696, 1137, 3597, 1110, 3470
12697, 1803, 1802, 3362,  255
12698, 4165, 1176,  256, 1845
12699, 3711, 1847, 1867, 1910
12700, 3353, 3352, 1097, 1124
12701, 3351, 3352, 3353, 1124
12702, 3339,  978, 1781,  979
12703, 3534, 3536, 1088, 1087
12704, 1781,  978, 1775,  202
12705, 3524, 3666, 3523, 3353
12706, 3903, 1176, 1803, 1177
12707, 3684, 3902, 3347, 3248
12708, 3350, 3975, 3351, 3353
12709, 4203, 3975, 1534, 4068
12710, 3958, 1815, 1831, 1819
12711, 4003, 3298, 3296, 3297
12712, 3350, 3398, 3975, 3407
12713, 3958, 1813, 1815, 1186
12714, 3957, 1813, 1835, 1833
12715, 4062, 1879, 1770, 1743
12716, 3790, 1862, 1897, 1860
12717, 3693, 3802, 4146, 3721
12718, 3344, 3964, 3489, 1880
12719, 4045, 3344, 1879, 3411
12720, 3922, 3607, 3947, 1979
12721, 1978, 3704, 3607, 3947
12722, 3544, 1577, 1638, 1635
12723, 3728, 1884, 1827, 1745
12724, 3947, 3607, 1978, 1979
12725, 3410, 1745, 1741,  328
12726, 3411, 1884, 1880, 1827
12727, 3695, 3694, 3630, 3719
12728, 3414, 3418, 3415, 3425
12729, 3605, 3413, 3611, 3416
12730, 3040, 3947, 3704, 1977
12731, 3457, 1775, 1769, 1835
12732, 3462, 3956, 3843, 3842
12733, 3049, 1375, 3961, 1767
12734, 3287, 3597, 1083, 1084
12735, 3807, 1377, 1402, 1401
12736, 4113, 1058, 3830, 1059
12737, 3885, 3457, 1833, 3957
12738, 3461, 3459, 1003, 1004
12739, 3652, 4113, 1058, 3830
12740, 3961, 1374, 1767, 1375
12741,  429, 1757, 1931,  428
12742, 3465, 3822, 3821, 3755
12743, 3463, 3651, 3469, 3464
12744, 4182, 1085, 4006, 1112
12745, 3803, 1758, 1757, 1931
12746, 3747, 3395, 3969, 3404
12747, 1064, 3770, 3854, 3742
12748, 3113, 3115, 3627, 3769
12749, 3109, 1649, 3219, 1588
12750, 4082, 4007, 1280, 3338
12751, 3699, 3417, 3614, 3418
12752, 3854, 3116, 1118, 3745
12753, 4016, 3994, 3970, 3993
12754, 3920, 1666, 1589, 1680
12755, 3797, 1380, 1381, 1405
12756, 3793, 1379, 1404, 1403
12757, 3981, 1768, 1834, 1832
12758, 3190, 3194, 3200, 3198
12759, 3738, 3876,  983,  171
12760, 3796, 1818,  340, 1378
12761,  173, 3965, 3737, 3738
12762, 3982, 1380, 1812, 1808
12763, 3797, 1405, 1404, 1380
12764, 3290, 3750, 2029,  408
12765, 3498, 3738, 3502, 3741
12766, 1956, 4100, 1957, 4073
12767, 3186, 3936, 1253, 1277
12768, 1812, 1808, 1380,  342
12769, 3795, 1812, 1832, 1834
12770, 3799, 4074, 4073, 3808
12771, 3739, 3738, 3950, 1010
12772, 1810, 1382,  344, 1816
12773, 3644, 3697, 1870, 1838
12774, 3738, 3876, 1010,  983
12775, 3889, 3877,  170, 3643
12776, 3636, 1840, 1846, 1866
12777, 3284, 1974, 3501, 1975
12778, 3697, 1810, 1870, 1868
12779, 1380, 1381, 1808, 3982
12780, 3498, 3741, 3879, 3738
12781, 3691, 1810, 1816, 1382
12782, 4031, 3259, 1852, 3643
12783, 3925, 4055, 3923, 2091
12784, 3718, 1780, 1785, 1838
12785, 4214, 1471, 4215, 1472
12786, 3693, 3612, 4105, 3696
12787, 4163, 2092, 2065, 2066
12788, 3040, 1950, 3632, 1977
12789, 3313, 3926, 3923, 4163
12790, 3925, 1628, 3314, 1630
12791, 3718, 3644, 3721, 1780
12792, 3644, 1780, 1836, 1774
12793, 4005, 3831, 3653, 4082
12794, 3926, 1558, 2091,  379
12795, 2092, 4163, 3309, 1552
12796, 3948, 1950, 1949, 1923
12797, 3309, 1611, 3314, 1628
12798, 3124, 1366, 3412, 1390
12799, 3718,  435, 1785, 1780
12800, 3412, 1391, 3097, 1390
12801, 3645, 1927, 3721, 1774
12802, 3020, 3344, 3409, 3411
12803, 3552, 3584, 3024, 3553
12804, 3312, 1499, 3784, 1523
12805, 1597, 3383, 1646, 1598
12806, 3939, 1475, 1500, 3784
12807, 4020, 1821, 1874, 1801
12808, 3812, 1816,  345, 1383
12809, 2009, 3944, 2035, 4016
12810, 3653, 3652, 4169, 3830
12811, 4176, 4225, 2011, 4223
12812, 3591, 3286, 3658, 3288
12813, 4070, 1801,  101,  681
12814, 4040, 4014, 1060, 3536
12815, 3783, 3778, 3312, 3784
12816, 3939, 3972, 1501, 1477
12817, 3764, 3971, 3970, 3924
12818, 3571, 1887, 1755, 1747
12819, 4211, 1349, 1348,  313
12820,  325, 4052, 1364, 1751
12821, 3779, 1476, 3987, 1452
12822, 3567, 1363, 1387, 1362
12823, 3571, 3567, 3568, 1362
12824, 3570, 1856, 1887, 1857
12825,  324, 1363, 1753, 1362
12826, 3567, 1362, 1387, 1386
12827, 3561, 3570, 3571, 4149
12828, 3571, 1363, 1753, 4052
12829, 1428, 1427, 1452, 3997
12830,  280, 1202, 1754, 1752
12831, 1828, 1754, 4149, 1857
12832, 4052, 1865, 1751, 1856
12833, 1902, 3959, 1884, 1913
12834, 1031, 3830, 4123, 3459
12835, 3939, 3972, 1500, 1501
12836, 3963,  424,  425, 1784
12837, 3963, 3999, 1372, 1373
12838, 3833, 3394, 1232, 1256
12839, 4219, 1987, 2014, 2013
12840, 3960, 1784, 1777,  335
12841, 3391, 3345, 3219, 3433
12842, 3390, 3389, 2983, 2082
12843, 1932,  428, 1762,  427
12844, 3345, 3219, 3433, 1580
12845, 3219, 1651, 3433, 1580
12846,  396, 3219, 2109, 2108
12847, 1818, 1378, 1377,  339
12848, 1758, 1931,  429, 1757
12849, 3219, 2108,  396, 1580
12850, 2979, 2983, 1588, 3109
12851, 4194, 4160, 1055, 4159
12852, 4100, 1984, 1983, 1957
12853, 4076, 4077, 4079, 1236
12854, 3873, 3870, 4077, 3871
12855, 4157, 4077, 4079, 4164
12856, 3796, 1830, 1814, 1818
12857, 3793, 3795, 3982, 1380
12858, 4077, 4200, 4078, 3870
12859, 3021, 3964, 3344, 3411
12860, 3795, 3796, 1814, 1379
12861, 3793, 1380, 1404, 1379
12862, 3793, 3798, 3996, 1404
12863, 3801, 3797, 3798, 3793
12864, 4071, 1830, 1764, 1832
12865, 3796, 1832, 1814, 1830
12866, 3521, 1998, 2024, 3217
12867, 3797, 1382, 1381, 1810
12868, 3020, 3069, 3410, 3412
12869, 3996, 1429, 3997, 1428
12870, 3645, 3981, 3800, 4072
12871, 3982, 1810, 1808, 1870
12872, 4096, 4059, 4215, 1471
12873, 3693, 4104, 3696, 4105
12874, 3023, 3217, 3231, 3235
12875, 3215, 3214, 3217, 3930
12876, 3201, 3216, 3942, 3941
12877, 3584, 1997, 3217, 3235
12878, 3811, 4021, 3726, 3810
12879, 4120, 1311, 4190, 1312
12880, 4192, 3337, 1286, 1310
12881, 3697, 3691, 3797, 1810
12882, 1383, 4020,  345, 3812
12883, 4189, 1287, 1263, 1264
12884, 4199, 3336, 3337, 1285
12885, 4020, 1384,  345,  346
12886, 4161, 1081, 4162, 1108
12887, 4120, 4190, 1105, 1104
12888, 4189, 1264, 4191, 1288
12889, 4211, 1349, 3564, 1348
12890, 4211,   21, 1203, 1748
12891, 3068, 3222, 3224, 3602
12892, 3481, 3484, 3476, 3477
12893, 1747, 1755, 1349,  314
12894, 3369, 3486, 3095, 3483
12895, 3103, 3221, 3104, 3101
12896,  260, 1182, 1817, 1823
12897, 3221, 1322, 1299, 3979
12898, 3936, 4172, 3174, 1163
12899, 3900, 1839, 1781, 1837
12900, 4123, 1005, 3625, 1032
12901, 1845, 1803, 1176,  256
12902, 1206, 3248, 1207, 1183
12903, 3686, 3845, 3685, 1869
12904, 3421, 3423, 1320, 1319
12905, 4166, 3421, 4068, 3407
12906, 3204, 1790,  205, 3846
12907, 3845, 1867, 1841, 1869
12908, 3422, 3276, 3423, 3421
12909, 3421, 3668, 1319, 3669
12910, 3541, 1745, 1750, 1902
12911, 3035, 3122, 3124, 3097
12912, 3207, 3300, 3305, 3209
12913, 3203, 3360, 1008, 1009
12914, 3830, 4169, 3459, 1031
12915, 3652, 4182, 1084, 1085
12916, 3872, 4179, 4158, 4200
12917, 3728, 3411, 1827, 1884
12918, 3959, 3126, 1902, 3728
12919, 3340, 3843, 3461, 3462
12920, 3872, 1211, 1188, 1212
12921, 3410, 3728, 3411, 1827
12922, 3457, 1769, 1833, 1835
12923, 3962, 4231, 1960, 1961
12924,  976, 3885,  200,  975
12925, 3957, 1185, 1809, 1813
12926, 3456, 3901, 3957, 3898
12927, 3728, 3411, 3069, 3410
12928, 3069, 3411, 3728, 3959
12929, 3250, 3187, 1279, 1278
12930, 1813,  264, 1815, 1186
12931, 3885, 1833, 1765, 1831
12932, 3844, 1765,  199, 1761
12933, 4114, 3931, 3648, 1303
12934, 1769,  201, 1775,  977
12935, 1303, 4114, 4007, 1279
12936, 3952, 3471, 3298, 3209
12937, 3932, 3162, 3161, 4004
12938, 1822, 3872, 4033, 1188
12939, 3304, 3303, 3305, 3473
12940, 4220, 4231, 4221, 3050
12941, 3873, 3872, 1212, 4200
12942, 3868, 3873, 1822, 1189
12943, 1865, 3126, 1913, 3678
12944, 1756, 1759,  973,  197
12945, 4078, 1000, 4179, 1001
12946, 3381, 1766,  269, 1191
12947, 3381, 1192, 1191,  270
12948, 3700, 3679, 3753, 1918
12949, 3074, 3677, 3623, 2933
12950, 3073, 3342, 3135, 4098
12951, 3677, 3075, 1903, 1914
12952, 2933, 1888, 1864, 1749
12953, 3679, 3342, 3753, 1918
12954, 3907, 2074, 2101, 1512
12955, 3366, 3320, 3966, 3849
12956,  392, 3705, 2105, 2104
12957, 3080, 1888, 1749, 1746
12958, 3858, 3791,  391, 2103
12959, 3660, 1201, 1749, 1752
12960,  391, 3791, 2104, 2103
12961, 3342, 1920, 1917, 1912
12962, 3660, 1752, 1202, 1201
12963, 3973, 3364, 3365, 1675
12964, 3677, 1864, 1914, 1899
12965,  203,  979, 1786, 1781
12966, 3973, 1675, 3791, 1660
12967, 4121, 1130, 1313, 1103
12968, 4121, 1104, 1130, 1103
12969, 3203, 4183, 1009,  982
12970, 3210, 1790, 1786, 1841
12971, 3687, 1781, 1839, 1786
12972, 3685, 1839, 1841, 1786
12973, 4221, 1960, 1987, 1986
12974, 4191, 1077, 4198, 1076
12975, 4120, 4121, 1312, 4190
12976, 3360, 3848, 4183, 3203
12977, 3203, 1008, 3846,  981
12978, 3846, 1790,  205,  980
12979, 3687, 1786,  980,  979
12980, 4198, 1103, 1289, 1076
12981, 4121, 1313, 1130, 1337
12982, 4190, 1311, 1287, 1288
12983, 3204,  981,  205, 1794
12984, 4122, 1132,  226, 1570
12985, 4133, 1844, 1872, 1886
12986, 3622, 3550,  937,  940
12987, 4093, 1310, 4134, 1334
12988, 4121, 1313, 1337, 1336
12989, 4099, 3896,  411, 1716
12990, 1570,  227,  300, 4119
12991, 4028, 3504, 3500, 1842
12992,  937, 1890, 3643,  170
12993, 4219, 4216, 2012, 2013
12994, 3953, 1792, 3713,  958
12995, 4119, 1131, 4120, 1132
12996, 4222, 3804, 1401, 1400
12997, 1792,  958,  957,  182
12998, 4119,  227, 4206, 1131
12999, 3953, 1849, 1851, 1792
13000, 3561, 3571, 3564, 4149
13001, 3565, 3563, 3603, 3602
13002, 3953, 1792, 1796, 1849
13003, 4219, 4223, 1985, 2012
13004, 3568,  317, 3604, 1353
13005, 3565, 3601, 1352, 1353
13006, 3880, 1948,  411, 1975
13007, 3565, 3568, 3272, 3604
13008, 3788, 1860, 3789, 3790
13009, 3500, 1796, 1797, 1842
13010, 1843, 4029, 1795, 1798
13011, 4028, 1842, 1843, 1848
13012, 3575, 1860, 3790, 1897
13013, 3564, 3568, 1351, 1349
13014, 3576, 3517, 1904, 1895
13015, 3576, 1893, 4067, 1858
13016, 3575, 3489, 1905, 1897
13017, 3575, 1895, 3788, 1860
13018, 3878, 3879,  172, 3738
13019, 3290, 3750, 3292, 2029
13020, 3293, 3292, 3927, 3294
13021, 1947, 1791, 1795,  413
13022, 3490, 1998, 1971, 1972
13023, 3202, 3203, 3360, 1008
13024, 3370, 3898, 1209, 1208
13025, 3899, 1209, 3898, 1185
13026, 3901, 3957, 1185, 1809
13027, 3901, 3902, 1811, 1184
13028, 3370, 3371, 3898, 1208
13029, 3690, 3725, 3691, 3697
13030, 3636, 3726, 1866, 1846
13031, 3633, 3634, 3720, 3719
13032, 1416, 3328, 1415, 2926
13033, 3202, 3848, 3300, 3360
13034, 3714, 3837, 1854, 1894
13035, 3292, 2029, 2056, 2055
13036, 3839, 1012,  985,  986
13037, 3839, 1013, 1012,  986
13038, 3242, 3173, 3304, 3296
13039, 3836, 1854, 1859, 1783
13040, 3585, 1942, 1969, 1968
13041, 4053, 1860, 1778, 1772
13042, 4069, 1850, 1787, 1855
13043, 3297, 1035, 3360, 1036
13044, 4003, 3156, 3536, 3545
13045, 3848, 3244, 3300, 3243
13046, 3491, 1973, 1999, 3490
13047, 1859, 3279, 3837, 3835
13048, 2945, 3278, 3015, 3818
13049, 3834, 3359, 3245,  988
13050, 1778, 3788, 4043, 1858
13051, 3245, 3839,  987, 1014
13052, 3124, 3097, 1389, 1390
13053, 3576, 1858, 1895, 1893
13054, 1943,  417, 1778,  416
13055, 3245, 3976, 3817, 1014
13056, 1778,  416, 4043, 1943
13057, 3245, 3359, 1015,  988
13058, 3045, 3233, 3231, 3851
13059, 3511, 3707, 1892, 1889
13060, 3231, 3235, 2024, 2023
13061, 3344, 1879, 1880, 1862
13062, 3707, 3717, 1891, 1889
13063, 3728, 1902, 3541, 3126
13064, 3707, 3714, 1892, 1901
13065, 1943, 1772, 1778,  417
13066, 3556, 1528,  348,  349
13067, 4053, 1862, 1860, 1772
13068, 3558, 3768, 4023, 1503
13069, 3171, 3163, 3767, 3723
13070, 3171, 3426, 3558, 3768
13071, 3885,  200,  975, 1765
13072, 4165, 1175,  256, 1176
13073, 3557, 1615, 3724, 3673
13074, 3211, 3683, 3210, 3846
13075, 3558, 1528, 3556, 3557
13076,  204,  980, 1790, 1786
13077, 3204, 1841, 1877, 1790
13078, 4204, 3558, 4023, 1504
13079, 3558, 1527, 3673, 1503
13080, 3557, 1527, 3558, 1528
13081, 3782, 1168, 1174, 1169
13082, 3372, 3373, 3209, 3626
13083, 1807,  168, 1873,  936
13084, 3182, 3729, 4049, 3181
13085,  164,  914, 1806, 1805
13086, 3173, 1166, 1161, 3243
13087, 3549, 1806,  165,  907
13088, 3574, 3551,  908, 3619
13089, 2999, 1873, 1807, 1806
13090, 3550,  936, 1807, 1873
13091, 3490, 3214, 1998, 1999
13092, 4188, 1170, 3848, 3243
13093, 4111, 3918, 4132,  922
13094, 4111,  928,  921,  929
13095, 4099, 3052, 3896, 1716
13096,  402, 4099, 4127, 1921
13097, 2999, 1844, 1873, 1806
13098, 3202, 3300, 3211, 3360
13099, 3903, 3488, 3904, 3206
13100, 3242, 3244, 3305, 3303
13101, 3244, 1172, 1166, 1171
13102, 3618, 4111, 1804,  921
13103, 4089,  286, 3223, 1356
13104, 3689, 3604,  318, 1355
13105,  914, 1806, 1805, 3641
13106, 4099,  411, 3896, 1853
13107, 3477, 3967, 3482, 3485
13108, 4127, 1921, 1872,  403
13109, 3227, 3089, 3487, 3689
13110, 3576, 3716, 4067, 1893
13111, 4030, 1881, 1853, 1798
13112, 4067, 3717, 1855, 3716
13113, 3880, 1975,  411,  410
13114, 3689, 1458,  319,  318
13115, 3487,  319, 3484, 1357
13116, 3880, 3260,  409,  410
13117, 4032, 1797, 1881, 1842
13118, 3689, 3089, 1458, 3940
13119, 3510,  985, 3508, 3514
13120, 3789, 4043, 3792, 1943
13121, 3514, 3839,  985,  986
13122, 3654,  438, 1922,   97
13123, 3654, 1793,  438,   98
13124, 3838, 3839, 3514,  986
13125, 3713, 1854, 3836, 1788
13126, 3527,  985, 3891, 3510
13127, 3953, 1851, 3713, 1792
13128, 4098, 3133, 3489, 1908
13129, 4145, 3835, 1859, 3837
13130, 3836, 3515, 3837, 1854
13131, 3503, 3513, 3515, 3511
13132,  436, 3720, 1785, 1789
13133, 3516, 3838, 3839, 3514
13134, 1926, 1774,  433,  434
13135, 1892, 3511, 1851, 3515
13136, 3645, 1834, 1774, 1836
13137, 3767, 3723, 3424,  692
13138, 4171, 1983, 2010, 2009
13139, 3217, 1997, 3930, 1998
13140, 3171, 3166, 3420, 3170
13141, 3171, 3420, 3768, 3673
13142, 3767, 3424,  699,  692
13143, 3664,  707, 4066,  708
13144, 3458, 4158, 3656, 3327
13145, 4076, 3656, 4075, 4158
13146, 4076, 1235, 4200, 1236
13147, 3873, 4157, 4077, 1213
13148, 4078, 1001, 4179, 4075
13149, 3645, 1768, 1774, 1834
13150, 4194, 4076, 4078, 4079
13151, 4076, 4077, 1236, 4200
13152, 1927,  433, 1768,  432
13153, 4171, 4100, 1983, 1982
13154, 3866,   18,  214,  213
13155, 3862, 4018, 3866, 1144
13156, 1930, 1760,  430, 1929
13157, 3808, 1830, 1760, 1764
13158, 3863, 1145, 3385, 1146
13159, 3808, 1760, 1818, 1758
13160, 3866,  213,  214, 1144
13161, 3866, 1145,  241,   18
13162, 3866, 1585,  241, 1643
13163, 3864, 1585, 3866, 1643
13164, 3752, 2030, 2004, 3688
13165, 4176, 4137, 4170, 4229
13166, 1928,  431,  432, 1764
13167, 3721, 1774, 1927, 1926
13168, 3947, 1978, 3704, 1977
13169, 3704, 3610, 2031, 2032
13170,  429, 1930, 1931, 1758
13171, 3807, 1377, 3803, 1818
13172, 3049, 1767,  337, 1375
13173, 3704, 2005, 3610, 2032
13174, 3415, 3752, 3424, 3613
13175, 3780, 3972, 3774, 3672
13176, 3415, 3039, 3752, 3613
13177, 3752, 2004, 3039, 3704
13178, 1930, 1758,  430, 1760
13179, 3167, 3688, 3175, 3164
13180, 2005, 1978, 3704, 3607
13181, 3415, 3165, 3704, 3416
13182, 3365, 3791, 1675, 1539
13183, 3319, 3316, 3532, 3662
13184, 1463, 3151, 2925, 3150
13185, 3254, 4143, 3874, 1705
13186, 3804, 3050, 1376, 1400
13187, 3256, 3973, 1679, 3364
13188, 3961,  427, 1767,  426
13189, 1982, 4037, 2009, 4171
13190, 3315, 3319, 3317, 3147
13191, 3147, 3364, 3751, 3867
13192, 1933,  427, 1932, 1762
13193, 3824, 1604, 1329, 1330
13194, 3961, 1762, 1767,  427
13195, 2966, 3467, 1557, 1627
13196, 3481, 3485, 3482, 1361
13197, 3485, 3484, 1482,  320
13198, 1491, 2099, 1515, 2098
13199, 3938,  333,  424,  334
13200, 4087, 3999, 1397, 1396
13201, 3477, 3486, 3483, 3485
13202, 1355, 1357, 3689, 3223
13203, 3963, 3938,  334, 1372
13204, 4231, 1988, 1987, 1961
13205, 1371, 1396, 1937, 1395
13206, 3227, 3229, 3940, 3689
13207, 3937, 1938, 1370, 1371
13208, 3937, 3938,  423, 1937
13209, 3484,  319, 1482,  320
13210, 4207,  331,  421, 1369
13211, 3487, 1458, 3484,  319
13212, 3779, 3609, 1478, 1454
13213, 3486, 3484, 1458, 1482
13214, 1370,  421, 1369, 1938
13215, 1964, 1937, 1963, 1395
13216, 3938, 1372, 1371,  333
13217, 3254, 3973, 4050, 1694
13218, 3146, 3212, 2994, 3213
13219, 3144, 1486, 3787, 3145
13220, 2986, 3317, 3212, 2994
13221, 4116, 3649, 3932, 3931
13222, 1942, 1772, 1770, 4053
13223, 3575, 1897, 1895, 1860
13224, 3254, 1694, 4143, 1705
13225, 3705, 2104,  392, 1563
13226, 3045, 3850, 3580, 3849
13227, 4050, 3827, 1694, 1659
13228, 4005, 4004, 3162, 4114
13229, 1941, 1770,  418,  419
13230, 4082, 1256, 4110, 1280
13231, 3874, 3264, 3882, 1711
13232, 3326, 3338, 1281, 1282
13233, 3592, 4082, 3394, 3833
13234, 3372, 3347, 3474, 3373
13235, 3217, 3553, 3930, 1997
13236, 3833, 3370, 1232, 3371
13237, 3593, 1307, 3321, 1283
13238, 3890, 1787, 1850, 1791
13239, 3653, 3652, 3830, 4113
13240, 3024, 1969, 1942, 1943
13241, 3575, 3790, 3489, 1897
13242, 1944,  415,  416, 1782
13243, 3790, 1860, 4053, 1862
13244, 3025, 3586, 3585, 3584
13245, 4024,  964, 4152, 3809
13246, 3951, 3241, 3238,  962
13247, 3241, 1878, 3240, 1744
13248, 4043, 1782,  416, 1778
13249, 3241, 3239, 1878, 1863
13250, 3919, 3280, 1898, 1896
13251, 3237, 3809, 4024, 3240
13252, 3014, 3709, 3009, 3033
13253, 3238, 3241, 4024,  962
13254, 3275, 3266, 4109, 2974
13255, 1272, 3587, 3277, 3588
13256, 3422, 3978, 1296, 3277
13257, 3280, 1898, 1896, 1906
13258, 2968, 3825, 3422, 3978
13259, 3586, 4046, 1968, 3328
13260, 3800, 3799, 3998, 4071
13261, 3654, 4197,   97, 1922
13262, 3801, 4148, 3998, 4037
13263, 4148, 1982, 3998, 4037
13264, 4171, 4037, 3995, 4100
13265, 1427, 3996, 3997, 1428
13266, 1945,  414,  415, 1787
13267, 4104, 1429, 3798, 1405
13268, 1429, 3996, 1404, 1428
13269, 3256, 3662, 1682, 1696
13270, 3022, 3575, 3790, 3489
13271, 3055, 3813, 3540, 3141
13272, 3948, 4197, 3638, 3654
13273, 3552, 3790, 3348, 3788
13274, 2924, 3255, 3257, 3256
13275, 4055, 4209, 4156, 2062
13276, 1948, 1795,  412, 1947
13277, 3924, 3988, 3972, 4017
13278, 4155, 4092, 3777, 1670
13279, 3778, 3777, 4092, 1632
13280, 3098, 1413, 1414, 1438
13281, 4209, 1568, 3772, 2088
13282, 3240, 1829, 1742, 1744
13283,  962, 3238,  963, 4024
13284, 4024, 3241, 3240, 1744
13285, 3241, 1771, 1863, 1878
13286, 3784, 1500, 3939, 3972
13287, 3922, 3612, 3608, 3945
13288, 3970, 4168, 3989, 3971
13289, 4168, 3989, 2061, 2062
13290, 4092, 3989, 4209, 3772
13291, 3588, 3176, 3277, 1272
13292, 3970, 4168, 3608, 3944
13293, 3524, 3665, 3666, 1071
13294, 3076, 3118, 1248, 1224
13295, 3168, 1223, 1199, 1200
13296, 3989, 2061, 3971, 4168
13297, 3975, 3351, 1538, 1676
13298, 3350, 3356, 3398, 3407
13299, 3240, 1878, 1829, 1744
13300, 3014, 3012, 3009, 3010
13301, 3016, 3063, 3062, 4019
13302, 3524, 3376, 3354, 1071
13303, 4150, 4152, 1197, 1198
13304, 1883, 3080, 4013, 1746
13305, 3442, 3620, 3375, 3352
13306,  233, 1564, 3974, 1125
13307, 3548, 1246, 1222, 1223
13308, 4019, 1829, 1882, 1883
13309, 3367, 4001, 1708, 3107
13310, 3919, 3951, 1861, 1863
13311, 3319, 3787, 3751, 3884
13312, 3226, 3977, 1322, 3979
13313, 1708, 4001, 1695, 3107
13314, 4002, 4001, 3105, 1684
13315, 4001, 3106, 1695, 3107
13316, 4001, 1695, 3105, 1684
13317,  369, 4002, 1507, 1547
13318, 3344, 1880, 3489, 1897
13319, 3279, 1916, 1896, 1894
13320, 3344, 3411, 1880, 1879
13321, 2932, 3168, 3663, 3118
13322, 3838,  986,  959,  960
13323, 3586, 3585, 1969, 1968
13324, 4044, 4202, 1743, 4063
13325, 4045, 1879, 3344, 4062
13326,  183,  959, 1783, 1788
13327, 4149, 1887, 1828, 1857
13328, 1754, 1748, 1203,  281
13329, 4211,  282,   21, 1348
13330, 3790, 4053, 3344, 1862
13331, 3584, 3217, 1997, 3553
13332, 3215, 3552, 3431, 3553
13333, 3537, 3279, 3837, 3129
13334, 4211, 1747, 1349,  314
13335, 3563, 3562, 3564, 1227
13336, 3177, 3277, 3422, 3423
13337, 3674, 1412, 3706, 3522
13338, 2991, 3071, 2990, 3098
13339, 3909, 1180, 1826, 1181
13340, 3075, 1920, 1914, 1900
13341, 1551, 3466, 1553, 3032
13342, 3909, 1826, 1180, 1178
13343, 1809,  263, 1813, 1185
13344, 3901, 1871, 1835, 1809
13345, 3592, 3833, 3326, 4110
13346, 3900, 1871, 1837, 1835
13347, 3456, 1835, 3457, 3957
13348, 1184, 1809, 1811, 3901
13349, 3903, 3206, 3362, 1803
13350, 3339, 3683, 3625, 1006
13351, 3903, 1177, 4117, 1172
13352, 3362, 1803, 3206, 1847
13353,  960, 1779, 1783, 4145
13354, 4145,  960, 1779,  961
13355,  254,  255, 1177, 3362
13356, 3129, 3279, 3518, 3138
13357, 3362, 1802, 1826,  254
13358, 3845, 1847, 3206, 1841
13359, 3207, 3244, 3205, 3903
13360, 1788,  183,  959,  958
13361, 3902, 1183, 1811, 1184
13362, 3686, 1869, 1871, 1811
13363, 3711, 1910, 3362, 1847
13364, 3904, 3361, 3909, 3362
13365, 3456, 3370, 3371, 3898
13366, 3686, 1817, 3845, 1869
13367, 3504, 1849, 1796, 1842
13368, 3552, 3431, 3788, 3348
13369, 3344, 1862, 4062, 1879
13370, 3713, 1788, 1851, 1854
13371, 3511, 1849, 1889, 1851
13372, 3411, 3959, 1880, 1884
13373, 3716, 3518, 3714, 1901
13374, 3708, 1850, 1889, 1848
13375, 3129, 3714, 3279, 3837
13376, 3070, 3412, 1391, 3097
13377, 4045, 1827, 1743, 1741
13378, 3505, 3708, 3538, 3511
13379, 3505, 3511, 3504, 3708
13380, 1014, 1041, 3976, 3817
13381, 3707, 1892, 1889, 1891
13382, 4045, 1879, 4062, 1743
13383, 1368, 1367, 1392, 4046
13384, 3993, 3923, 4156, 4084
13385, 3701, 3702, 3617, 3692
13386, 3726, 1846, 1874, 1866
13387, 1382, 1816, 3691, 1383
13388, 1817, 1811, 1183,  261
13389, 3710, 3377, 1182, 1183
13390, 3924, 4155, 3671, 3170
13391, 3711, 1867, 1823, 1910
13392, 2036, 2035, 4156, 4016
13393, 3500,  956, 1796,  957
13394, 3879, 2998,  172, 3599
13395, 3953,  958,  957, 1792
13396,  957, 1792, 1796, 3953
13397,  958, 1788, 1792, 3713
13398, 4047, 2079, 3581, 3850
13399, 3861, 2053, 3495, 3496
13400, 3439, 3478, 3853, 3193
13401, 3366, 3849, 2077, 2050
13402, 3504, 1849, 1848, 1889
13403, 2918, 3059, 3018, 3017
13404, 3580, 3849, 2078, 2077
13405, 3907, 3150, 2076, 2075
13406, 3581, 3850, 2079, 2078
13407, 3686, 1871, 1869, 1839
13408, 3685, 1841, 1839, 1869
13409, 3902, 1817, 1811, 1183
13410, 3682, 3684, 3686, 3456
13411, 3604, 1355, 1353,  318
13412, 3604, 1386, 3566, 1410
13413, 3555, 3570, 3547, 3567
13414, 3654,  438,   97,    8
13415, 3500, 4032, 1797,  956
13416, 3847, 1877, 1845, 1794
13417, 4165, 1794, 1845,  257
13418, 3272, 3229, 3271, 3602
13419, 3220, 3226, 3067, 3980
13420, 3847, 1176, 4165, 1845
13421, 3120, 3676, 3546, 3623
13422, 3675, 1410, 3566, 1411
13423, 3910, 3404, 3405, 1653
13424, 3654,   98,  438,    8
13425, 4028, 4030, 1843, 1881
13426, 3780, 1501, 3972, 1477
13427, 4020, 1385, 4021, 1384
13428, 3702, 1407, 1408, 1432
13429, 4021, 3811, 1384, 1408
13430, 4102, 1846, 1876, 1799
13431, 3726, 1846, 1800, 1874
13432, 3910, 3405, 1689, 1653
13433, 3361, 1823, 1826, 1910
13434, 3361, 1181, 1823, 1182
13435, 2992, 2993, 3234, 3233
13436, 3908, 3435, 1688, 1697
13437, 3654, 1911,   99,  695
13438, 4169, 1031, 3830, 1058
13439, 3847, 1176, 1845, 1803
13440, 3831, 4014, 4113, 4015
13441, 4005, 4113, 3535, 4006
13442, 3847, 1877, 1803, 1845
13443, 3204, 3846, 3210, 1790
13444, 4046, 3328, 1967, 1968
13445, 3375, 3620, 1070, 1097
13446, 3517, 1904, 1905, 1919
13447, 4113, 4015, 4014, 1059
13448, 3274, 3275, 4109, 3825
13449, 3592, 4169, 3459, 3830
13450, 3695, 3698, 3644, 3697
13451, 1838, 3695, 3725, 3720
13452, 3344, 1897, 1862, 1880
13453, 3788, 1858, 1860, 1895
13454, 3697, 3691, 3955, 3797
13455, 3124, 1366, 3541, 3410
13456, 3654, 1911,   98,   99
13457, 3793, 3802, 3801, 3797
13458, 4148, 4037, 1981, 1982
13459, 4072, 3721, 1927, 1954
13460, 3330, 3906, 3332, 3540
13461, 3024, 1970, 1969, 1943
13462, 3969, 1583, 3396, 1119
13463, 3268, 3376, 3621, 1042
13464, 3576, 1895, 1904, 1893
13465, 3585, 1942, 1968, 1941
13466, 3586, 1996, 1995, 1969
13467, 3645, 3802, 3721, 4148
13468, 4148, 3721, 1954, 4146
13469, 1889, 3511, 1851, 1892
13470, 3717, 3708, 1850, 1889
13471, 3707, 1901, 1892, 1891
13472, 3839,  987, 1014, 1013
13473, 3430, 3930, 3490, 3214
13474, 3941, 3017, 3214, 3521
13475,  170, 3877, 4032, 3643
13476, 3259, 1853, 1885, 1886
13477, 3598,  940, 2998,  943
13478, 3489, 1880, 1908, 1897
13479, 4067, 3716, 1855, 1893
13480, 3325, 1439, 1414, 1415
13481, 1335, 1334, 1560, 4122
13482, 3400, 3405, 3143, 3332
13483, 3717, 3716, 1891, 1855
13484, 3575, 1897, 1905, 1895
13485, 3133, 1919, 1905, 1915
13486, 3086, 3093, 3096, 1460
13487, 3621, 3539, 1068, 1069
13488, 3521, 3851, 2024, 2025
13489, 4069, 4067, 3717, 1855
13490, 3138, 1916, 1906, 1896
13491, 3106, 3107, 1663, 1695
13492, 3217, 2024, 3235, 1997
13493, 3518, 1901, 1904, 1916
13494, 3518, 1916, 1904, 1919
13495,  236, 1571, 1122, 1575
13496, 3063, 1900, 1883, 1882
13497, 3663, 1749, 1201, 1200
13498, 3080, 1883, 1888, 1746
13499, 3069, 3728, 3126, 3959
13500, 3486, 3485, 1482, 3483
13501, 4001, 1695, 3106, 3105
13502, 3062, 1900, 1888, 1883
13503, 3591, 3286, 3656, 3658
13504, 1902, 1865, 3126, 1913
13505, 1567, 3821, 1561, 1631
13506, 4199, 1284, 4193, 1285
13507, 3070, 3325, 1415, 3328
13508, 3959, 1913, 1907, 1884
13509, 2987, 3315, 2985, 3317
13510, 3706, 1412, 1388, 1413
13511, 4076, 4158, 4075, 4200
13512, 4199, 4135, 1308, 1309
13513, 3321, 1282, 3326, 1283
13514, 3075, 1900, 1914, 1888
13515, 3062, 4019, 3063, 1883
13516, 3679, 1920, 1918, 1903
13517, 3321, 3469, 1306, 1307
13518, 2944, 3011, 2945, 3015
13519, 3677, 1914, 1903, 1899
13520, 4076, 3656, 4181, 4075
13521, 3660, 1864, 1752, 1749
13522, 3700, 1903, 1918, 1913
13523, 3132, 3133, 1915, 1919
13524, 3933, 3530, 3301, 4125
13525, 3919, 3280, 1896, 3835
13526, 3351, 1538, 1676, 1564
13527, 3669, 3276, 3407, 3421
13528, 3082, 3399, 3263, 3141
13529, 3856, 3399, 3141, 1658
13530, 3676, 1899, 3677, 1903
13531, 3399, 1693, 3141, 1658
13532, 3398, 3263, 1693, 1677
13533, 3858, 3907, 2102, 1512
13534, 3553, 3584, 3217, 3023
13535, 3751, 3867, 1541, 1510
13536, 3859, 3856, 3443, 4103
13537, 4098, 1912, 1915, 1908
13538, 3620, 3859, 1096, 3352
13539, 3959, 1884, 1907, 1880
13540, 4044, 4045, 4062, 1743
13541, 1343, 1534, 1540, 4068
13542, 2972, 2985, 3257, 3318
13543, 3217, 1998, 3930, 3214
13544, 3569, 1864, 1857, 1752
13545, 3829, 1015, 3359,  988
13546, 3974, 3353, 3523, 3670
13547, 3974, 3670, 1126, 1125
13548, 4009, 1915, 1917, 1909
13549, 3975, 3407, 1676, 1624
13550, 3980, 1274, 1298, 1297
13551, 4166, 1624, 4068, 1540
13552, 3670, 1100, 1317, 1127
13553, 3061, 1917, 1920, 1900
13554, 4203, 1538, 3117, 1530
13555, 3075, 1920, 1903, 1914
13556, 3075, 2933, 1888, 1914
13557, 3342, 1912, 1918, 1920
13558, 3659, 3623, 3660, 2933
13559, 3553, 1970, 3930, 1997
13560, 3308, 3314, 1611, 1607
13561, 3858, 3966, 3791, 2103
13562, 3706, 1388, 3125, 1389
13563, 3921, 1524, 1605, 1523
13564, 3921, 1607, 3314, 1523
13565, 4220, 4218, 4056, 1423
13566, 3718, 3720, 1785,  436
13567, 3639,  696,  704,  697
13568, 3635, 4102, 3636, 1876
13569, 3718,  436, 1785,  435
13570, 4218, 1425, 4229, 1449
13571, 4057, 4056, 4231, 1988
13572, 4176, 4223, 1984, 4224
13573, 3949, 4196,  704, 3639
13574, 1793,  437, 3635, 1922
13575, 3637, 3640, 3810, 3726
13576, 4056, 1987, 4231, 1988
13577, 4220, 1398, 1423, 1422
13578, 1926,  434, 1780, 1774
13579, 3630, 1978, 1977, 1951
13580, 1924, 1923, 1789,  436
13581, 3703, 3702, 4140, 1431
13582, 3644, 1838, 1836, 1780
13583,  432, 1768, 1928, 1764
13584, 4102, 3726, 1846, 1800
13585, 3611, 3694, 3612, 3922
13586, 1926, 3719, 1925, 1952
13587, 4218, 4215, 1447, 1448
13588, 4219, 4220, 4056, 1987
13589, 3718, 1925, 1924,  435
13590, 3635, 3634, 1923, 1789
13591, 3880, 3896,  410,  411
13592, 3290, 3880, 3260,  409
13593, 3987, 1476, 1475, 1451
13594, 3054,  410, 3896, 1719
13595, 3054, 3052, 1719, 3896
13596, 3718, 1780, 1926,  434
13597, 3698, 1810, 3697, 3797
13598, 3945, 2007, 1981, 2008
13599, 3739,  173, 3738, 1037
13600, 3261, 3000, 3878, 2998
13601, 4141, 3051, 3262, 3897
13602, 1929,  431, 1764, 1760
13603, 4148, 1955, 1982, 1981
13604, 1928, 1927, 1768,  432
13605, 4229, 1450, 1449, 1425
13606, 4229, 1450, 1425, 1426
13607, 3800, 3802, 4148, 3801
13608, 4071, 1955, 1928, 1929
13609, 1981, 4146, 1954, 1980
13610,  977, 1769,  976, 3340
13611, 1929,  430,  431, 1760
13612, 1929, 1928, 1764,  431
13613, 3684, 3686, 3456, 3902
13614, 4137, 1426, 4138, 4170
13615, 4071, 1929, 1928, 1764
13616, 4073, 1930, 1957, 1956
13617, 4123, 3459, 3460, 1031
13618, 3592, 3833, 3458, 3327
13619, 3997, 1427, 1452, 3987
13620, 1758,  430,  429, 1930
13621, 4222, 1400, 1425, 1424
13622, 4220, 1987, 4221, 4231
13623, 3780, 3672, 3774, 1502
13624, 4156, 2036, 2062, 2035
13625, 4148, 1954, 4072, 1955
13626, 4218, 4226, 1448, 1449
13627, 3960,  426, 1777,  425
13628, 4169, 3459, 1031, 1030
13629, 4123, 3626, 4015, 1032
13630, 1932, 1762,  428, 1757
13631, 3279, 1894, 3714, 3518
13632, 2019, 1443, 1442, 1418
13633, 3115, 3114, 3065, 4142
13634, 3111, 3113, 3116, 3770
13635, 4000, 3855, 1961, 1962
13636, 4219, 1986, 2012, 1985
13637, 3642, 3918, 3619, 3917
13638, 3396, 1641, 1587, 1648
13639, 1590,   25, 2979, 4142
13640, 3718, 3720, 3644, 1838
13641, 3718,  435, 1924,  436
13642, 1467, 2019, 1442, 1466
13643, 4000, 1398, 3962, 4231
13644, 3963,  424, 1936, 1935
13645, 3937,  423,  333,  422
13646, 3720, 1924,  436, 3718
13647, 3634, 1924, 3719, 1951
13648, 3938,  333,  423,  424
13649, 3922, 1980, 4146, 3945
13650, 3719, 3630, 1951, 1952
13651, 3937, 1938, 1937,  422
13652, 1417, 1393, 1966, 1992
13653, 2018, 1419, 1992, 1991
13654, 1939, 1938, 1369,  421
13655, 1991, 1395, 1419, 1965
13656, 3968, 1673, 1598, 1599
13657, 3388, 3385, 3387, 1147
13658, 1965, 1394, 1938, 1395
13659, 1991, 1395, 1964, 1990
13660, 4063, 1940, 1939,  420
13661, 4207, 1939, 1369,  421
13662, 3216, 3214, 3430, 3491
13663, 3153, 3161, 3156, 3155
13664, 1966, 4046, 3328, 1967
13665, 1393, 1939, 1368, 1392
13666, 3157, 3172, 4172, 1157
13667, 3387, 1152, 3385, 3386
13668, 1939, 1394, 1965, 1966
13669, 2020, 1442, 1441, 1417
13670, 1417, 1442, 1418, 2019
13671, 4063, 1939, 1940, 1368
13672, 3527, 3817, 1040, 1013
13673, 4044, 4202, 4063, 4046
13674, 3383, 3388, 1597, 3384
13675, 1939, 1966, 1392, 1393
13676, 3585, 3024, 4062, 3344
13677, 4044,  419, 1743, 1770
13678, 3585, 4046, 1941, 1968
13679, 3289, 3291, 3290, 3741
13680, 3538, 3708, 3707, 3511
13681, 3409, 4044, 4045, 3585
13682, 3498, 3877, 3876, 3878
13683, 1942, 1772,  417,  418
13684, 4053, 1770, 1862, 1772
13685, 4062, 1770, 1879, 1862
13686, 4046, 1968, 1967, 1941
13687, 3344, 1880, 3411, 3964
13688, 2925, 1464, 1463, 1439
13689, 4044, 4046, 1940, 1941
13690, 4029, 1947, 1791, 1795
13691, 3130, 3518, 3517, 3138
13692, 1942, 1941, 1770,  418
13693, 3234, 2023, 3233, 2050
13694, 3707, 3511, 3708, 1889
13695, 3504, 1848, 3708, 1889
13696, 4043, 1782, 1778, 1858
13697, 3372, 3394, 3374, 3592
13698, 4069, 1787, 1782, 1855
13699, 4067, 1858, 1893, 1855
13700, 3527, 3816, 3329, 3526
13701, 3339, 3625, 3460, 1005
13702, 3717, 1855, 1891, 1850
13703, 1946, 1791,  413,  414
13704, 4036, 1947, 1973, 1946
13705, 3890, 1848, 1791, 1850
13706, 1945, 1944, 1782,  415
13707, 3369, 3103, 3095, 3486
13708, 3492, 1973, 1972, 1946
13709, 3576, 3788, 1895, 1858
13710, 3370, 3899, 1209, 3898
13711, 3885, 3457, 3340, 1769
13712, 4029, 1795, 1791, 1848
13713, 3899, 3898, 3957, 1185
13714, 1946, 1945, 1787,  414
13715, 3686, 3901, 1871, 3900
13716, 3958, 3899, 3957, 1186
13717,  414, 1946, 1791, 1787
13718, 3497, 3500, 3499, 4028
13719, 3957, 1833, 3958, 1813
13720, 4145, 1779, 1783, 1859
13721, 3376, 3620, 1069, 1070
13722, 3290, 3880,  409, 2002
13723, 4029, 1843, 1795, 1848
13724, 1947,  412,  413, 1795
13725, 1947,  413, 1946, 1791
13726, 3890, 1947, 1946, 1791
13727, 3084, 3055, 3813, 3264
13728, 3621, 3620, 3539, 1069
13729, 3064, 3816, 3329, 3817
13730, 3283, 2001, 2027, 2000
13731, 3748, 2056, 3750,  407
13732, 3501, 1974, 1947, 1948
13733, 3806, 3808, 1930, 4073
13734, 3707, 3717, 3716, 1891
13735, 4219, 4220, 4221, 4222
13736, 4030, 1843, 1881, 1798
13737, 4137, 4222, 4224, 3804
13738, 4220, 4222, 4218, 1424
13739, 3825, 4108, 4109, 4166
13740, 3825, 3421, 1320, 1344
13741, 4196, 3639,  703,  704
13742, 4197, 1949,   96, 1922
13743, 3825, 4166, 3421, 1344
13744, 3266, 3408, 4109, 3883
13745, 3949, 4196,   95,  704
13746, 3922, 1980, 2006, 1979
13747, 4109, 3408, 1683, 1707
13748, 3825, 3978, 1321, 1320
13749, 3634, 1951, 1950, 1924
13750, 4104, 3955, 3696, 1406
13751, 3697, 1838, 3695, 3725
13752, 3718, 1925, 3719, 1924
13753, 1698, 2974, 4108, 4109
13754, 3694, 1979, 3947, 3630
13755, 3699,  684, 4147,  683
13756, 3721, 3694, 1952, 1953
13757, 1928, 4072, 3981, 1927
13758, 3645, 3721, 3644, 1774
13759, 3694, 3630, 3719, 1952
13760, 2089,  376,  377, 1568
13761, 3630, 1978, 1951, 1952
13762, 4219, 4216, 4225, 2012
13763, 3779, 1453, 3997, 4105
13764, 3721, 1953, 1952, 1926
13765, 3719, 1952, 1951, 1925
13766, 3718, 3719, 1925, 1926
13767, 3510, 3514, 3839,  985
13768, 3670, 1098, 3666, 1099
13769, 4166, 4109, 3408, 1683
13770, 4166, 4068, 1343, 1540
13771, 4166, 1545, 1698, 1540
13772, 3113, 3769, 3758, 3756
13773, 3924, 4017, 4155, 3772
13774, 4176, 4175, 4229, 4170
13775, 4072, 1955, 1954, 1928
13776, 3693, 3797, 3798, 3801
13777, 3922, 1953, 4146, 1980
13778, 4221, 1959, 1985, 1958
13779, 3892, 3732,  918, 3734
13780, 3453, 3444, 3578, 3577
13781, 3645, 3802, 3644, 3721
13782, 3916, 3895,  916, 3917
13783, 3805, 1959, 1958, 1932
13784, 4138, 3995, 1426, 3794
13785, 4171, 2009, 1982, 1983
13786, 3652, 1058, 4113, 1085
13787, 1931, 3806, 3803, 1930
13788, 3372, 4123, 4015, 3830
13789, 4139, 1984, 4100, 1957
13790, 3590, 3593, 3651, 3321
13791, 3464, 1627, 1629, 1606
13792, 3050, 1399, 1375, 1400
13793, 3806, 4073, 1957, 4139
13794, 4215, 1447, 1472, 1471
13795, 3806, 1958, 1957, 1931
13796, 3590, 3596, 3653, 3321
13797, 4123, 3830, 1031, 1032
13798, 3962, 1960, 1933, 1934
13799, 4137, 1425, 4222, 1401
13800, 4000, 1398, 3855, 1397
13801, 3773, 3776, 1525, 1524
13802, 3988, 4168, 4209, 3989
13803, 4231, 3855, 1398, 1422
13804, 1934,  426, 3961, 3960
13805, 4057, 4056, 1422, 4231
13806, 4219, 1986, 4221, 1987
13807, 4221, 1960, 1986, 1959
13808, 3922, 3945, 2007, 1980
13809, 3924, 3765, 3989, 3772
13810, 3293, 3479, 3193, 3291
13811, 2044, 2018, 1443, 2045
13812, 4087, 1963, 1396, 1420
13813, 3999, 1936, 1962, 1935
13814, 3055, 3540, 3813, 3814
13815, 4210, 1469, 1444, 1445
13816, 3960, 3962, 4000, 1374
13817, 1419, 1965, 1992, 1991
13818, 3422, 1320, 3423, 1296
13819, 3266, 3883, 3265, 3408
13820, 2931, 3246, 3663, 3660
13821, 3427, 3589, 3528, 3077
13822, 3587, 3423, 1295, 1296
13823, 2935, 3588, 3624, 3176
13824, 1395, 1420, 1396, 1963
13825, 1394, 1393, 1966, 1939
13826, 3427, 3589, 3077, 1271
13827, 3328, 1966, 1993, 1416
13828, 1939, 1394, 1938, 1965
13829, 4210, 1444, 1469, 1468
13830, 1993, 1417, 1416, 1966
13831, 1392, 1416, 1417, 1966
13832, 4046, 1966, 1392, 1939
13833, 3908, 1697, 3910, 3435
13834, 3108, 3113, 3111, 3115
13835, 3969, 1120, 3747, 4101
13836, 1514, 1513, 2101, 2074
13837, 1393, 1418, 1992, 1417
13838, 3585, 3024, 1969, 1942
13839, 3328, 1391, 1416, 1415
13840, 3328, 1994, 1967, 1968
13841, 2926, 1416, 1441, 1440
13842, 3404, 4101, 3405, 1653
13843, 3328, 1994, 1993, 1967
13844, 3908, 3910, 1687, 3404
13845, 2101, 2074, 1513, 1512
13846, 2073, 3047, 1490, 2047
13847, 1965, 1395, 1419, 1394
13848, 3393, 3395, 3969, 3747
13849, 3584, 1996, 1969, 1970
13850, 3716, 1904, 1901, 1893
13851, 3520, 3861, 3495, 3496
13852, 3517, 1904, 1895, 1905
13853, 3395, 3404, 3908, 1686
13854, 3513, 3515, 3714, 3837
13855, 3430, 3214, 3490, 3491
13856, 3705, 3580, 4050, 3581
13857, 3489, 1908, 1905, 1897
13858, 3792, 1971, 1970, 1944
13859, 3908, 3435, 3433, 1688
13860, 3392, 3854, 3113, 3742
13861, 3929, 1782, 1945, 1944
13862, 3200, 3391, 3397, 3493
13863, 4047, 2106, 3826, 3581
13864, 3930, 1998, 1997, 1971
13865, 2000, 3491, 1973, 1999
13866, 3490, 1972, 1999, 1998
13867, 2983, 3345, 2081, 2108
13868, 1039, 3478, 3439, 3438
13869, 3515, 3707, 1892, 3511
13870, 4069, 1787, 1946, 1945
13871, 3942, 3283, 2000, 3491
13872, 3817, 3816, 1040, 1041
13873, 3334, 3337, 3336, 1286
13874, 3490, 1999, 1972, 1973
13875, 3028, 3031, 3363, 3119
13876, 4120, 1335, 4134, 1311
13877, 4192, 1105, 4120, 4190
13878, 4012, 1560, 1556, 1616
13879, 3032, 4162, 1108, 4010
13880, 3503, 3508, 3510, 3507
13881, 4199, 3335, 3337, 3336
13882, 4036, 1974, 1973, 1947
13883, 3880, 3260,  410, 3896
13884, 3306, 3216, 3285, 3196
13885, 3741, 3740, 3965, 3737
13886, 1948, 4029, 3501, 4030
13887, 4199, 1285, 3337, 1309
13888, 3433, 1580, 1651, 1654
13889, 3500,  956, 3508,  983
13890, 4028, 1881, 1843, 1842
13891, 4122, 4120, 4134, 1132
13892, 3880, 1975,  410, 2002
13893, 3501, 1975, 1974, 1948
13894, 4192, 1287, 1311, 1310
13895, 2028, 3292, 2029, 2002
13896, 3495, 2053, 2052, 2026
13897, 1307, 3468, 3819, 3469
13898, 3593, 3594, 4187, 1283
13899, 3040, 1950, 1976, 1949
13900, 3418, 4147, 4177, 4140
13901, 3712,   93,   92,  706
13902, 1674, 1639, 1582, 2922
13903, 4145, 3835, 4151, 1861
13904, 4145, 1773, 1779, 1861
13905, 3752,  706,  699,  698
13906, 3639, 3616,  697, 3039
13907, 3630, 1951, 1977, 1950
13908, 3949,  705, 3039,  704
13909, 3040, 1977, 2003, 1976
13910, 4105, 1429, 1454, 1453
13911, 3712, 2030,   92,   93
13912, 3818, 3919, 4151, 3835
13913, 3416, 3704, 3607, 3610
13914, 3704, 2004, 1977, 1978
13915, 3919, 3281, 3239, 1898
13916, 3703, 1430, 1406, 1431
13917, 3714, 3518, 1894, 1901
13918, 3836, 1859, 4145, 1783
13919, 2034, 2033, 3971, 3608
13920, 3279, 3138, 3280, 1896
13921, 3945, 2007, 1980, 1981
13922, 3779, 1452, 1453, 1477
13923, 4148, 1955, 1981, 1954
13924, 3630, 1979, 1978, 1952
13925, 4100, 1983, 1956, 1957
13926, 3279, 3278, 3537, 3835
13927, 3794, 1404, 1428, 1403
13928, 1894, 1859, 3279, 3837
13929, 3236, 1995, 3586, 3235
13930, 4176, 1984, 2010, 1983
13931, 4100, 1956, 1982, 1955
13932, 3926,  379, 1554, 1558
13933, 4016, 2036, 2035, 2009
13934, 3324, 2926, 3253, 3213
13935, 3097, 3071, 3098, 3325
13936, 4016, 3992, 2009, 3944
13937, 3993, 3988, 3783, 3785
13938, 3325, 3097, 1415, 1414
13939, 3309, 1552, 3310, 1614
13940, 3099, 3098, 3213, 1438
13941, 4084, 2038, 2037, 2011
13942, 4167, 2064, 2037, 2038
13943, 4216, 2013, 2039, 2012
13944, 3325, 3213, 1438, 1439
13945, 4071, 4072, 1928, 1955
13946, 4078, 4164, 1000, 1027
13947, 3871,  999, 3870, 4164
13948, 4214, 1471, 1496, 1495
13949, 4077, 3871, 3870, 4164
13950, 4224, 1985, 1984, 1958
13951, 4227, 2065, 2038, 2039
13952, 4084, 2037, 2010, 2011
13953, 3870, 4164,  999, 1000
13954, 1399, 1398, 1423, 4220
13955, 3805, 4221, 3804, 4224
13956, 3990, 3992, 3991, 4170
13957, 4220, 4218, 1423, 1424
13958, 4231, 1961, 1987, 1960
13959, 3868, 3871, 3873, 3379
13960, 4157, 4077, 1213, 1237
13961, 3911,  382, 1555, 1550
13962, 4221, 4231, 1987, 1960
13963, 4087, 4057, 1989, 4228
13964, 4083, 4080, 1239, 1238
13965, 3382, 4080,  997,  998
13966, 3531, 3881, 1699, 1714
13967, 4225, 2012, 4216, 2039
13968, 4087, 1989, 1963, 1990
13969, 4080, 4185, 1239, 1215
13970, 1990, 1964, 1963, 1395
13971, 4157, 4079, 1237, 1238
13972, 4228, 2017, 4210, 2016
13973, 1992, 1443, 1419, 2018
13974, 4228, 1990, 1420, 1444
13975, 4057, 1989, 4228, 2016
13976, 4083, 4080, 4157, 1025
13977, 2018, 1991, 2017, 1419
13978, 1491, 2098, 2071, 2072
13979, 2017, 1419, 1991, 1990
13980, 3382, 1215, 1214, 1191
13981, 1966, 1394, 1965, 1992
13982, 4208, 4210, 1468, 2044
13983, 4111,  922, 4132,  929
13984, 2991, 2912, 2990, 3071
13985, 2018, 1419, 2017, 1443
13986, 3182, 3642, 3598, 3574
13987, 3915, 4132,  923,  930
13988, 1993, 1417, 1966, 1992
13989, 2044, 1443, 2018, 2017
13990, 3915, 4048, 1723, 1726
13991, 3053, 4132, 1720, 1721
13992, 1465, 1464, 1489, 2047
13993, 2926, 2020, 1417, 1993
13994, 4141, 1720, 4132, 1723
13995, 3766, 3779, 3997, 4105
13996, 3417, 3699, 3613, 3424
13997, 3146, 1463, 1462, 1438
13998,  418, 1942, 1772, 1770
13999, 4143, 1710, 1705, 1701
14000, 2926, 2021, 2925, 2020
14001, 2052, 3851, 3495, 2025
14002, 1563, 2104,  392,  391
14003, 3849, 3233, 2051, 2050
14004, 3366, 3253, 2993, 3234
14005, 3605, 3611, 3413, 3609
14006, 2970, 3275, 3101, 3106
14007, 3426, 4022, 4140, 4023
14008, 1948, 4030, 1798, 4029
14009, 3764, 3972, 3733, 3672
14010, 3231, 2024, 3851, 3233
14011, 3420, 3764, 3733, 3672
14012, 4122,  225, 1556, 1560
14013, 3930, 1971, 1997, 1970
14014, 3690, 3697, 3695, 3725
14015, 3766, 3944, 3608, 3945
14016, 2926, 3328, 1993, 1416
14017, 3746, 3826, 2106, 1576
14018, 3403, 3908, 3435, 3433
14019, 3908, 1688, 1686, 1687
14020, 4051, 2080, 2107, 2106
14021, 3282, 2001, 2000, 1974
14022, 1133, 4012, 4091, 4134
14023, 3171, 2921, 4144, 3664
14024, 3851, 2052, 2051, 2025
14025, 3997, 3954, 3994, 3766
14026, 3941, 1999, 2026, 2025
14027, 4195, 3039, 3752, 2003
14028, 3060, 3075, 3074, 2933
14029, 3512, 3505, 3538, 3513
14030, 3039, 2004, 3040, 3704
14031, 3661, 3256, 3364, 3973
14032, 3282, 2000, 1973, 1974
14033, 3256, 1682, 3364, 1679
14034, 3531, 3662, 3888, 1696
14035, 1685, 3367, 3662, 3751
14036, 3751, 3364, 3662, 1682
14037, 3152, 3907, 3966, 3365
14038, 3518, 1901, 1916, 1894
14039, 3090, 3089, 3940, 3091
14040, 3751, 3867, 3364, 1625
14041, 3106, 1655, 3105, 1695
14042, 3284, 2001, 1974, 1975
14043, 3188, 1725, 3189,  408
14044, 3395, 1650, 1686, 1648
14045, 3256, 3888, 3662, 1696
14046, 3884,  368, 1541, 1544
14047, 3494, 2027, 2053, 2026
14048, 3284, 1975, 2002, 2001
14049, 3740, 3179, 3189, 3188
14050, 3636, 1876, 4102, 1846
14051, 3635, 3720, 1789, 1840
14052, 2972, 3318, 3128, 2973
14053, 3290, 2029, 2002,  409
14054, 3752, 3039,  705,  698
14055, 3636, 3726, 4102, 3640
14056, 4102,   99,  695,  100
14057, 3712,   92,  707,  706
14058, 3949, 2003,   94, 1976
14059, 3639, 3039,  697,  704
14060, 4102, 1800, 1799,  100
14061, 3639,  697, 3616,  696
14062, 3040, 2004, 2003, 1977
14063, 4102, 3640,  688,  695
14064, 3638, 4102,  695, 3640
14065, 4070, 3640, 4102, 3726
14066, 3434, 4042, 1657, 1690
14067, 1578, 2087,  375,  374
14068, 3413, 4022, 3609, 3703
14069, 3558, 3673, 3768, 1503
14070, 3041, 3861, 3333, 3495
14071, 3694, 3630, 1952, 1979
14072, 3434, 4047, 3746, 3826
14073, 4194, 4079, 4078, 4164
14074, 3807, 1401, 3804, 1377
14075, 4168, 2061, 2035, 2062
14076, 3925, 1630, 1558, 1628
14077, 3608, 2033, 2006, 2007
14078, 3433, 3435, 1654, 1688
14079, 3746, 3433, 1654, 1580
14080, 3434, 4042, 1690, 3435
14081, 4137, 4224, 3807, 3804
14082, 4146, 3945, 1981, 4148
14083, 4148, 4146, 1954, 1981
14084, 3309, 1611, 1554, 1552
14085, 4037, 2009, 2008, 1982
14086, 3794, 3793, 3795, 3799
14087, 3715, 3610, 2060, 2059
14088, 3994, 3992, 3993, 4016
14089, 3954, 3996, 4105, 3997
14090, 3612, 3922, 3608, 3607
14091, 2093,  381, 1552,  380
14092, 2092, 1552, 1554,  380
14093, 4209, 2089, 2088, 2062
14094, 3994, 4037, 3801, 3995
14095, 4138, 3794, 1426, 1402
14096, 4037, 3944, 2008, 2009
14097, 4037, 2008, 3944, 3945
14098, 3994, 3954, 3801, 4037
14099, 3779, 3780, 1478, 3733
14100, 3308, 3313, 3309, 3314
14101, 4216, 2014, 2040, 2013
14102, 4223, 2012, 2011, 1985
14103, 3779, 3997, 1453, 1452
14104, 3970, 3987, 3939, 3988
14105, 4219, 1986, 1987, 2013
14106, 4058, 2014, 2015, 2041
14107, 4058, 2015, 3775, 2042
14108, 3785, 3991, 1450, 4174
14109, 3310, 1550, 1614, 1552
14110, 3993, 3783, 4156, 3923
14111, 3996, 3794, 1428, 1427
14112, 4058, 1988, 2014, 1987
14113, 4219, 4056, 2014, 1987
14114, 4058, 4059, 1470, 1446
14115, 3801, 3945, 4148, 4037
14116, 3698, 3802, 3982, 3797
14117, 3766, 3612, 3609, 4105
14118, 4057, 1989, 2015, 1988
14119, 4059, 4215, 1447, 4056
14120, 4057, 3855, 1422, 1421
14121, 4058, 1987, 4056, 1988
14122, 4228, 1990, 1444, 2017
14123, 3419, 3733, 3764, 3609
14124, 3970, 3766, 3944, 3608
14125, 3764, 3972, 3779, 3733
14126, 4210, 2044, 2017, 1444
14127, 3924, 3170, 3169, 4155
14128, 1418, 1443, 1419, 1992
14129, 4017, 4092, 4155, 3772
14130, 3703, 3696, 3692, 1406
14131, 3694, 1979, 1953, 3922
14132, 2019, 2045, 1467, 1443
14133, 2073, 2100, 1490, 2099
14134, 3725, 3691, 1816, 3812
14135, 2926, 1993, 1417, 1416
14136, 2019, 2045, 2046, 1467
14137, 2045, 2018, 1443, 2019
14138, 3147, 3867, 3365, 3364
14139, 1466, 1442, 1441, 2020
14140, 4104, 4105, 1429, 1430
14141, 1487, 1488, 3151, 3907
14142, 2074, 1490, 1514, 1489
14143, 4104, 1406, 3696, 1430
14144, 3235, 2023, 2022, 1996
14145, 3286, 1083, 3595, 4159
14146, 3605, 3419, 3606, 3764
14147, 3611, 3694, 3947, 3630
14148, 3366, 3234, 2050, 2049
14149, 4127, 4099, 1716, 3052
14150, 3964, 1880, 1907, 1908
14151, 3235, 2022, 1995, 1996
14152, 3849, 2078, 2077, 2051
14153, 3875, 1692, 1701, 1694
14154, 4122,  226, 1560, 1570
14155, 3054, 3000, 3259, 3896
14156, 1805, 3618, 4133, 1804
14157, 3254, 1705, 1679, 1694
14158, 3144, 1462, 1463, 1487
14159, 3234, 2023, 2049, 2022
14160, 3705, 1566, 1660, 1563
14161, 3850, 2079, 2078, 2052
14162, 4127,  403,  404, 1718
14163, 3581, 2105, 3826, 1566
14164, 3138, 1916, 1919, 1906
14165, 4019, 3080, 4013, 1883
14166, 3233, 2050, 2023, 2024
14167, 3258, 3052, 4133, 3051
14168, 3492, 1972, 1945, 1946
14169, 3495, 2026, 2052, 2025
14170, 3398, 1676, 1677, 1661
14171, 3435, 1697, 1709, 1690
14172, 3849, 2077, 2050, 2051
14173, 4099, 1853,   26,  411
14174, 3282, 3283, 2000, 2001
14175, 3435, 1697, 1690, 1688
14176, 3717, 3538, 3492, 3708
14177, 1280, 3338, 4007, 1304
14178, 3301, 1112, 4182, 4006
14179, 3338, 1281, 4110, 3326
14180, 3831, 4113, 3830, 4015
14181, 4004, 3931, 4007, 4008
14182, 4116, 3931, 4008, 1304
14183, 3284, 2028, 2001, 2002
14184, 3283, 2028, 2027, 2001
14185, 4082, 4112, 1279, 4114
14186, 4114, 4004, 3162, 3931
14187, 3515, 1851, 1892, 1854
14188, 4082, 3338, 1280, 4110
14189, 3263, 3813, 3265, 3084
14190, 4004, 3932, 3822, 4125
14191, 3927, 2054, 2027, 2028
14192, 3839, 1013,  986,  987
14193, 3448, 3736, 3758, 3446
14194, 3931, 1303, 4114, 4007
14195, 3007, 3307, 3329, 3192
14196, 3372, 3831, 3471, 3474
14197, 4005, 3653, 3831, 4113
14198, 3750, 2029,  408, 2056
14199, 3372, 4123, 3626, 4015
14200, 4014, 3471, 4040, 4015
14201, 3752, 3613,  698, 3424
14202, 3694, 3954, 3922, 4146
14203, 4195, 2030,   93, 2003
14204, 4195, 3752, 2030, 2003
14205, 4005, 4113, 3831, 4014
14206, 3326, 1259, 1283, 1282
14207, 3833, 4110, 4082, 1256
14208, 3610, 2059, 2032, 2033
14209, 3164, 3712, 4066,  707
14210, 4082, 1255, 3394, 1256
14211, 4156, 2063, 2062, 2036
14212, 3780, 1502, 3774, 1501
14213, 4041, 3347, 1231, 3249
14214, 3768, 3673, 1502, 1503
14215, 4076, 3656, 1235, 1259
14216, 3690, 3696, 3955, 3692
14217, 3169, 3170, 1639, 1636
14218, 3833, 3327, 3326, 1257
14219, 3372, 3371, 3374, 3394
14220, 3394, 4041, 1231, 1255
14221,  351, 3671, 1603, 1609
14222, 3944, 2008, 2034, 2007
14223, 3833, 1257, 4110, 1256
14224, 3831, 4113, 3653, 3830
14225, 3626, 3625, 1006, 1033
14226, 3684, 3208, 3346, 3373
14227, 3371, 1207, 3347, 3902
14228, 3697, 1810, 1868, 1816
14229, 3703, 1406, 3692, 1407
14230, 1257, 3327, 1234, 3833
14231, 4084, 2036, 2009, 2010
14232, 3926, 1554, 1628, 1558
14233, 3954, 4146, 3801, 3945
14234, 3779, 1452, 3987, 3997
14235, 3690, 3696, 3693, 3955
14236, 4175, 4167, 4226, 4174
14237, 4092, 3772, 1568, 1634
14238, 3780, 3972, 3779, 1477
14239, 3766, 3779, 3987, 3997
14240, 4225, 2011, 4223, 2012
14241, 1430, 4105, 1454, 3703
14242, 3875, 4143, 1694, 1701
14243, 3502, 3290, 3284, 3880
14244, 3254, 4050, 3875, 1694
14245, 3740, 3290,  408, 3750
14246, 4225, 2039, 2038, 2012
14247, 4042, 3435, 1709, 1690
14248, 2095,  382,  383, 1555
14249, 4213, 2066, 2039, 2040
14250, 3741, 3879, 3965, 3749
14251, 3739, 3950, 1037, 1010
14252, 4058, 4059, 4056, 2014
14253, 3737,  173, 3943, 3965
14254, 3739, 1037, 3738, 1010
14255, 1497, 4226, 1472, 4214
14256, 3913, 4163, 2093, 1552
14257, 3914,  383, 1559, 1555
14258, 1471, 1470, 4096, 4059
14259, 4032, 1797,  956,  170
14260, 3497, 3502, 3498, 3876
14261, 2044, 1443, 2017, 1444
14262, 4097, 2043, 2070, 2069
14263, 4039, 1516,  361, 1515
14264, 3448, 3446, 3189, 3451
14265, 2019, 2046, 1466, 1467
14266,  176, 3770, 3756, 3111
14267, 3854, 3853, 1065, 1064
14268, 3748,  407, 3446,  406
14269, 3739, 1037, 3853, 1064
14270, 3234, 3235, 2023, 2022
14271, 3736, 3180, 3579, 3735
14272, 3984, 2098,  386,  385
14273, 3151, 1464, 2925, 2047
14274, 1466, 2020, 1441, 2047
14275, 3990, 4171, 4170, 4175
14276, 4137, 4229, 1425, 1426
14277, 3047, 2072, 1490, 1491
14278, 1490, 2074, 2073, 2047
14279, 4213, 2039, 4216, 2040
14280, 3992, 4037, 2009, 3944
14281, 2020, 1440, 2926, 1441
14282, 3907, 2076, 2103, 2102
14283, 3073, 3489, 4098, 3133
14284, 3151, 1489, 2074, 1488
14285, 3922, 2007, 3608, 2006
14286, 3996, 1428, 3794, 1404
14287, 2925, 2048, 2047, 2021
14288, 4071, 3998, 1955, 1956
14289, 3369, 4002, 3483, 3887
14290, 3875, 1701, 3540, 4143
14291, 3985, 2095, 3912, 2068
14292, 4019, 3240, 1878, 1829
14293, 4050, 1659, 1694, 1660
14294, 3399, 3263, 3141, 1693
14295, 3234, 2050, 2049, 2023
14296, 4019, 1878, 3239, 1882
14297, 3818, 3919, 3951, 4151
14298, 3100, 4001, 3107, 3106
14299, 3827, 1659, 1692, 1694
14300, 3233, 2051, 2050, 2024
14301, 3851, 2025, 2051, 2024
14302, 3132, 1909, 3281, 1906
14303, 3281, 3063, 3239, 1882
14304, 3835, 4151, 1861, 3919
14305, 3542, 3043, 3946, 4047
14306, 3478, 3891, 1012, 1011
14307, 4122,  225, 1560,  226
14308, 3941, 3495, 2025, 2026
14309, 3435, 1654, 1688, 1690
14310, 3910, 1653, 1689, 1687
14311, 2979, 3065,  405, 2110
14312, 3817, 1013, 3839, 1014
14313, 3014, 3239, 3241, 3238
14314, 3951, 3241, 3239, 3238
14315, 1976, 3040, 1949, 3639
14316, 3292, 2029, 2055, 2028
14317, 3737, 3113, 3743, 3748
14318, 3417, 3039, 3613, 3616
14319, 3613,  697, 3616, 3039
14320, 3109, 1648, 1686, 1649
14321, 3737, 3291, 3739, 3741
14322, 3752,  698, 3613, 3039
14323, 3743, 3853, 3739, 3193
14324, 3562, 4065, 1226, 1250
14325, 3389, 2056, 2083, 2082
14326, 3222, 3980, 3224, 1274
14327, 3220, 3224, 3222, 3980
14328, 3875, 3906, 3540, 1701
14329, 2983, 2083, 3065, 2110
14330, 3565, 3563, 1350, 1352
14331, 3220, 3980, 3222, 3221
14332, 3604, 1410,  317,  316
14333, 2959,  372, 2084, 1586
14334, 3271, 2936, 3554, 4065
14335, 3601, 3604, 3689, 1355
14336, 3829, 3238,  990,  989
14337, 3269, 1015, 3829, 1016
14338, 3169, 2086, 1578, 1582
14339, 3269, 3829, 1017, 1016
14340, 3671, 1526,  351, 3773
14341, 3610, 2059, 2058, 2032
14342, 3014, 3009, 3012, 3033
14343, 3976, 3829, 3011, 3269
14344, 4168, 2035, 2061, 2034
14345, 4022, 3733, 1478, 1479
14346, 2958, 2085, 2058, 2059
14347, 3829, 3359, 1015, 3976
14348, 3267, 1017, 3027, 1044
14349, 3169, 1636, 1639, 1578
14350, 3342, 4009, 3135, 1917
14351, 4092, 1632, 1670, 1634
14352, 3971, 2060, 2033, 2034
14353, 2991, 3127, 3122, 3097
14354, 3124, 1390, 3412, 3097
14355, 3086, 3087, 3093, 3091
14356, 3771, 2061, 2088, 2087
14357, 3542, 3827, 3826, 1657
14358, 3411, 3964, 1880, 3959
14359, 3964, 1908, 3489, 1880
14360, 3531, 1696, 3888, 1714
14361, 4163, 2092, 2091, 2065
14362, 2088, 3771, 3765, 2061
14363, 2973, 3531, 3881, 3107
14364, 3884, 1541,  368, 1509
14365, 4055, 2089, 2062, 2063
14366, 3785, 3784, 1475, 3939
14367, 3987, 3939, 3785, 1475
14368, 3988, 3784, 3939, 3972
14369, 3256, 3888, 1696, 1705
14370, 3390, 3198, 3194, 3927
14371, 4163, 2093, 2092, 2066
14372, 1611, 1628, 3309, 1554
14373, 3833, 3394, 3371, 1232
14374, 3202, 3204, 3846, 3210
14375, 3310, 1521, 1614, 1520
14376, 2945, 3357, 3278, 3818
14377, 4167, 2065, 2064, 2038
14378, 2091, 4163, 2065, 2064
14379, 3914, 1519, 3310, 1617
14380, 4096, 4212, 1495, 4214
14381, 3700, 1918, 1907, 1913
14382, 3778, 3784, 4017, 3777
14383, 3205, 3847, 3204, 3206
14384, 3710, 1823, 1867, 1817
14385, 4094, 3377, 1206, 1205
14386, 1181, 3377, 3909, 1205
14387, 4213, 4096, 2068, 2041
14388, 1495, 4212, 1494, 1519
14389, 3361, 1182, 3377, 1181
14390, 3986, 1493, 1518, 1517
14391, 4113, 1086, 4014, 3535
14392, 4097, 1493, 4208, 1469
14393, 4113, 1059, 4014, 1086
14394, 3830, 1032, 4015, 1059
14395, 3983, 2096, 3914, 3985
14396, 4097, 1494, 1493, 1469
14397, 3985, 2096, 2095, 2069
14398, 4095, 1492, 4208, 1493
14399, 4005, 4113, 4014, 3535
14400, 3156, 3535, 4014, 3536
14401, 3459, 3830, 4123, 3592
14402, 1006, 3683, 3625, 3626
14403, 2071, 1492, 2045, 2044
14404, 3519, 3707, 3716, 3714
14405, 3942, 3283, 3294, 2027
14406, 4208, 2044, 2071, 2070
14407, 3984, 2097, 2098,  385
14408, 3282, 2000, 3491, 1973
14409, 3289, 3196, 3479, 3502
14410, 2943, 2942, 2961, 3267
14411, 3047, 2073, 2046, 2047
14412, 3192, 3509, 3891, 3478
14413, 2073, 2099, 1490, 2072
14414, 2101,  364, 1513,  388
14415, 2100, 2074, 1490, 1514
14416, 3252, 3368, 3532, 3367
14417, 3151, 2074, 2047, 2048
14418, 3497, 3505, 3506, 3502
14419, 3907, 2102, 2101, 2075
14420, 4116, 3649, 1303, 1327
14421, 3151, 1488, 2074, 2075
14422, 3858, 2103,  391,  390
14423, 3366, 2076, 2049, 2050
14424, 3075, 1900, 3061, 1920
14425, 3151, 1488, 1487, 1463
14426, 3907, 3966, 2103, 2076
14427, 3338, 1280, 4110, 1281
14428, 4007, 3931, 1303, 1304
14429, 3490, 3214, 1999, 3491
14430, 3648, 3159, 3649, 3932
14431, 1561, 1138, 3821, 1139
14432, 4204,  686,  679,  678
14433, 3851, 3861, 3495, 3333
14434, 3366, 3234, 2049, 3253
14435, 3966, 2077, 2103, 2076
14436, 3045, 3849, 3233, 3851
14437, 3746, 3433, 3434, 1654
14438, 3580, 3849, 3850, 2078
14439, 3849, 3850, 2051, 3851
14440, 3419, 3166, 3715, 3765
14441, 3768, 3413, 3733, 3420
14442, 4047, 3581, 2079, 2106
14443, 3677, 2933, 3075, 1914
14444, 3389, 2056, 2082, 2055
14445, 3746, 1580, 1654, 1576
14446, 3163, 3767, 3723, 3424
14447, 3861, 2080, 2079, 2053
14448, 3496, 2054, 2080, 2053
14449, 3664, 2958, 3019, 2922
14450, 1504, 1528, 3556, 3558
14451, 3171, 3768, 3558, 3673
14452, 4154, 1433, 4147, 1432
14453, 3927, 2081, 2054, 2055
14454, 3345, 2081, 2108, 2107
14455, 3542, 3043, 3826, 3827
14456, 3757, 1734, 3761,  405
14457, 2983, 2109, 2108, 2082
14458, 3111, 3116, 3110, 1589
14459, 3692, 3691, 1406, 3955
14460, 4020,  345, 3812, 1821
14461, 3496, 2081, 2080, 2054
14462, 2983, 2110, 2109, 2083
14463, 3702, 1407, 3811, 1408
14464, 3929, 3490, 3930, 1971
14465, 1642, 3110, 3396, 1641
14466, 4066, 2057, 2084,   91
14467, 4217, 3810, 4154,  682
14468, 3175, 2085, 2084, 2058
14469, 2959, 1645, 3664,  701
14470, 3660, 1225, 3663, 1201
14471, 3664, 3164,  700, 3767
14472, 3019, 3170, 3169, 3166
14473, 3672, 1502, 3768, 3673
14474, 2085, 2084,  372, 1586
14475, 3962, 3050, 4231, 1398
14476, 2958, 2921, 2922, 1639
14477, 1399, 1398, 4220, 3050
14478, 3771, 2061, 2087, 2060
14479, 2958, 2085, 2086, 1582
14480, 2086, 2085,  373, 1582
14481, 2935, 3624, 3077, 3118
14482, 3169, 1578, 1639, 1582
14483, 3049,  337, 1767, 1824
14484, 3961, 3805, 3962, 3050
14485, 3771, 2087, 2086, 2060
14486, 2087, 2086,  374, 1578
14487, 3805, 3806, 1958, 4224
14488, 3169, 2087, 3772, 1578
14489, 4220, 3050, 3804, 1400
14490, 3772, 1574, 1634, 1636
14491, 1574,  375, 3772, 2088
14492, 3805, 3806, 4224, 3804
14493, 1762, 3049, 1767, 1824
14494, 4033, 1211, 3956, 1187
14495, 1562, 1568, 4054, 2089
14496, 4209, 2062, 2088, 2061
14497, 3460, 1031, 3459, 1004
14498, 4209, 2061, 3989, 2062
14499, 4209, 2088, 2089, 1568
14500, 2089, 1568, 2088,  376
14501, 3833, 3370, 3956, 1233
14502, 3374, 4123, 3459, 3460
14503, 3371, 3347, 1207, 1231
14504, 3236, 3235, 2022, 1995
14505, 3146, 1438, 3213, 1439
14506, 4202, 1743, 4063, 1738
14507, 3202, 3204, 3203, 3846
14508, 1392, 1966, 4046, 3328
14509, 3029, 2903, 2936, 3554
14510, 4076, 4078, 4077, 4200
14511, 3328, 4046, 1392, 1391
14512, 4130, 1736, 1732, 1733
14513, 4046, 1967, 1940, 1941
14514, 3022, 3024, 3344, 3790
14515, 3087, 1437, 3093, 1436
14516, 1372, 1937, 1396, 1936
14517, 3106, 1695, 1663, 1655
14518, 3232, 3213, 2990, 3098
14519, 2980, 2906, 2986, 2923
14520, 1490, 1515, 2099, 2100
14521, 3099, 1437, 3212, 3093
14522, 3047, 2073, 2072, 2046
14523, 3941, 3942, 2026, 1999
14524, 3097, 3325, 1415, 3070
14525, 3870,  999,  972,  973
14526, 4194, 4075, 4076, 4181
14527, 4157, 4079, 4186, 4164
14528, 3337, 3336, 1286, 1285
14529, 4186, 4164, 1027, 1026
14530, 3568, 3566, 3604, 1386
14531, 3199, 3495, 3017, 3941
14532, 3130, 3517, 3133, 1919
14533, 4109, 1698, 2974, 1707
14534, 3568, 1386,  315, 1362
14535, 4164, 4186, 4157, 1025
14536, 1025, 4080, 4157,  998
14537, 4193, 3336, 4079, 4186
14538, 3480, 1038, 3853, 1037
14539, 4028, 4029, 1848, 1843
14540, 3507, 3891, 1011,  984
14541, 3545, 1116, 1115, 1089
14542, 1160, 1166, 3243, 1161
14543, 3865, 4136, 1090, 3545
14544, 3847,  982, 4165, 4183
14545, 3155, 3545, 4003, 3865
14546, 3509, 3950, 3507, 3891
14547, 3865, 1150, 1155, 1156
14548, 3193, 3739, 3480, 3853
14549, 3891, 3950, 3480, 3509
14550, 1504, 3559, 3556, 1505
14551, 3687, 3900, 1839, 1781
14552, 3956, 3833, 1233, 1234
14553, 3909, 3361, 3377, 1181
14554, 1229, 1228, 3782, 1205
14555, 3458, 3658, 3842, 3657
14556, 3977, 1321, 1322, 1345
14557, 4208, 2043, 2044, 2070
14558, 3984, 4039, 1516,  361
14559, 4095, 2097, 2070, 2071
14560, 4095, 2071, 1492, 1516
14561, 3591, 3657, 3592, 3288
14562, 3985, 4097, 3986, 2069
14563, 3372, 3831, 3830, 4015
14564, 1491, 1492, 2071, 1516
14565, 4208, 2044, 1468, 1492
14566, 3983, 3986, 3984, 2097
14567, 3833, 4110, 1257, 3326
14568, 3592, 3833, 3327, 3326
14569, 3774, 1526, 1501, 1502
14570, 3755, 4182, 3301, 1112
14571, 4082, 4007, 4114, 1279
14572, 3720, 1838, 1785, 1840
14573, 3596, 3338, 3653, 3321
14574, 3591, 3656, 3326, 3327
14575, 3671, 3773, 3776, 3774
14576, 3671, 1668, 1603, 1609
14577, 3765, 3166, 3169, 3924
14578, 3484, 1357,  320, 1359
14579, 3967, 3482, 3485, 1537
14580, 3778, 1632, 3921, 3777
14581, 3120, 3677, 3074, 3679
14582, 3772, 1578, 2087,  375
14583, 3418, 4147, 3699, 4177
14584, 3591, 3592, 3327, 3326
14585, 3605, 3606, 3419, 3610
14586, 4070, 3810, 4217,  681
14587, 4154,  675,  683,  676
14588, 3461, 3455, 3340, 3462
14589, 3872, 4179, 4200, 3870
14590, 4033, 3843, 4179, 3844
14591, 3885, 1769,  200, 1765
14592, 4083, 4178, 4080, 1024
14593, 3844, 1765, 1761, 1831
14594, 3334, 4189, 1051, 1078
14595, 3656, 4158, 1235, 3327
14596, 4158, 1211, 4200, 1235
14597, 3869, 4179, 3870,  973
14598, 4108, 3106, 2974, 1663
14599, 4109, 1707, 3881, 3883
14600, 3703, 1455, 1454, 1430
14601, 2974, 3881, 1707, 1699
14602, 3701, 3810, 3615, 3614
14603, 3699,  683,  691,  684
14604, 4155, 1668, 1636, 1670
14605, 4177, 4140, 1480, 4023
14606, 3948, 3635, 3634, 1923
14607, 4217,  675, 1409, 1385
14608, 3559,  679, 4204,  686
14609, 3425, 3424, 3723,  692
14610, 3979, 1323, 1346, 1322
14611, 1385,  681,  347, 1801
14612, 2956, 3376, 3358, 3354
14613, 4133, 1805, 1872, 1844
14614, 3616,  690,  689,  697
14615, 3768, 1479, 1503, 1478
14616, 3601, 3222, 3229, 3602
14617, 3571, 1747, 1755, 1349
14618, 2047, 1489, 1490, 2074
14619, 2974, 3881, 1699, 3107
14620, 2922, 1639, 1582, 2958
14621, 3274, 3408, 3276, 4166
14622, 3825, 3422, 3978, 1320
14623, 3047, 2046, 1466, 2047
14624, 3047, 2045, 2072, 1491
14625, 1465, 2047, 1489, 1490
14626, 4205, 4147,  684,  677
14627, 4108, 1663, 1698, 1545
14628, 4147,  684,  677,  676
14629, 3169, 3771, 3765, 3772
14630, 3702, 1432, 4140, 1431
14631, 4177, 4140, 1456, 1480
14632, 3418, 3702, 3614, 4147
14633, 3988, 4168, 4156, 4209
14634, 3477, 3482, 3481, 3485
14635, 3226, 1298, 3221, 1322
14636, 1298, 3221, 1322, 1299
14637, 3979, 3221, 3104, 3476
14638, 3090, 3227, 3940, 3089
14639, 3825, 3977, 1345, 1321
14640, 1754, 4149, 1857, 3569
14641, 4211, 3571, 1349, 1747
14642, 3568,  315, 1386,  316
14643, 4211, 1748, 1828, 1747
14644, 3561, 3568, 3567, 3566
14645, 4090, 4230, 1346, 4107
14646, 3562, 3564, 1227, 1203
14647, 3974, 1564,  233, 1538
14648, 1270, 1269, 1293, 3589
14649, 3026, 1268, 1045, 1269
14650, 1197, 1221, 1198, 3809
14651, 3376, 1044, 3269, 3358
14652, 3350, 3398, 3085, 3352
14653, 3665, 3589, 1294, 1293
14654, 3665, 1045, 3026, 1072
14655, 3832, 3589, 1269, 1246
14656, 3589, 1270, 3077, 1271
14657, 3608, 3944, 2007, 3945
14658, 3559, 3171, 3724, 3722
14659, 3040, 3704, 3416, 3039
14660, 3612, 3696, 3609, 4105
14661, 3780, 3733, 3672, 3768
14662, 3416, 3947, 3607, 3704
14663, 3614, 3615, 3701, 3418
14664, 4102, 3640, 3638, 3635
14665, 3499, 3880, 3896, 3260
14666, 2998, 3599,  943,  172
14667, 3054, 3258, 3642, 3051
14668, 3182, 3598, 2998, 3599
14669, 3598, 3550,  940,  939
14670, 3598,  943, 3599, 3600
14671, 3304, 3157, 3172, 4172
14672, 3347, 1207, 3248, 3902
14673, 3457, 1775, 3339,  977
14674, 3456, 3371, 3902, 3898
14675, 3371, 3902, 1208, 1207
14676, 3394, 3347, 3371, 1231
14677, 3885, 3958, 3957, 1833
14678, 3074, 3075, 3677, 2933
14679, 3566, 3674, 3272, 3675
14680, 3660, 1749, 2933, 1864
14681, 3546, 3676, 3570, 3623
14682, 3689,  318, 3604, 1434
14683, 3604,  317,  318, 1353
14684, 3477, 3476, 3481, 3104
14685, 3676, 3678, 1865, 1903
14686, 3623, 3569, 1864, 1857
14687, 3677, 2933, 1914, 1864
14688, 2947, 2990, 3232, 2994
14689, 2949, 3017, 3521, 3218
14690, 3226, 3221, 3979, 1322
14691, 3661, 3254, 3973, 4050
14692, 3601, 1353, 1355, 1352
14693, 1194,  966,  272,  967
14694, 3525, 3817, 3064, 3270
14695, 3270, 3011, 3268, 3976
14696, 2988, 3128, 2972, 3257
14697, 1915, 1917, 4098, 3135
14698, 3133, 3489, 1908, 1905
14699,  190,  966,  191,  272
14700, 3865, 3172, 1156, 1155
14701, 3472, 3473, 3249, 3247
14702, 4136, 4003, 1062, 1089
14703, 1063, 4136,  210, 4173
14704, 3719, 1951, 1924, 1925
14705, 1170, 3243, 1165, 1171
14706, 3133, 3517, 1905, 1919
14707, 3298, 1061, 1034, 1035
14708, 3211, 1007, 3846, 1008
14709, 3130, 1919, 3138, 3517
14710, 2981, 3333, 2949, 3017
14711, 3128, 3882, 3264, 3883
14712, 1709, 3906, 1701, 1700
14713, 3082, 3856, 3141, 3142
14714, 3297, 1036, 3360, 3243
14715, 1789, 1924,  436, 3720
14716, 3055, 3141, 3263, 3813
14717, 3297, 4136, 4173, 3243
14718, 4173, 3243, 1160, 1165
14719, 3141, 1693, 3263, 3813
14720, 3668, 1294, 3355, 3587
14721, 3700, 3036, 3679, 3678
14722, 3723,  693,  686,  685
14723, 1504, 4023, 1480, 1479
14724, 3964, 1880, 3959, 1907
14725, 3905, 3747, 1094, 1121
14726, 3908, 1686, 3404, 1687
14727, 3767, 3723,  692,  693
14728, 4140, 1455, 1480, 1479
14729, 3723,  693,  685,  692
14730, 3558, 1503, 4023, 1504
14731, 3425, 3723,  685,  692
14732, 3862, 1144, 3864, 1143
14733, 4018,  213, 3866, 1144
14734, 3863, 3864, 3866, 1643
14735, 3754,  309, 1602, 1608
14736, 3172, 3865, 1156, 3386
14737, 4018, 4085,  212, 1117
14738, 3255, 3046, 3254, 3044
14739, 3417, 3632, 3416, 3039
14740, 3969, 1583, 1650, 1648
14741, 3910, 3404, 1653, 1687
14742, 4101, 1575, 3405, 1653
14743, 3969, 1583, 1579, 1650
14744, 4085, 1150,  212, 1155
14745, 3865, 3386, 1151, 1156
14746, 3545, 1089, 1090, 1116
14747, 3862, 4018, 1117, 4085
14748, 3981, 1927, 1768, 1928
14749, 4085,  211,  212, 1117
14750, 1155, 1090,  211, 4085
14751, 4072, 1954, 1927, 1928
14752, 3645, 1927, 1774, 1768
14753,  211,  212, 1155, 4085
14754, 3644, 3718, 3719, 3720
14755, 3693, 3698, 3955, 3797
14756, 3793, 3795, 1380, 1379
14757, 4112, 4114, 3250, 1279
14758, 3650, 3649, 1326, 1302
14759, 4004, 4116, 3932, 3931
14760, 4005, 4112, 3831, 4082
14761, 3637, 3633, 3695, 3631
14762, 1202, 1754, 1752, 3569
14763, 3727, 4052, 3676, 1865
14764, 3272, 3568, 3566, 3604
14765, 3569, 1864, 3660, 3623
14766, 3660, 3623, 1864, 2933
14767, 2930, 2975, 2978, 3060
14768, 3659, 3660, 3623, 3569
14769, 3265, 3264, 1704, 3883
14770, 1703, 3883, 1704, 1706
14771, 3883, 1704, 1706, 3264
14772, 3814, 3264, 1710, 3813
14773, 3264, 1710, 3813, 1704
14774, 3874, 3264, 1711, 1710
14775, 3264, 3882, 1711, 1706
14776, 3035, 3036, 3126, 3123
14777, 3130, 3135, 3132, 3133
14778, 3927, 3496, 3494, 2054
14779, 3861, 2079, 3850, 2052
14780, 3746, 4051, 2107, 2106
14781, 3494, 3496, 2053, 2054
14782, 3752,  699, 3424,  698
14783, 4140, 4023, 4177, 3426
14784, 1432, 4140, 4147, 3702
14785, 3613,  690, 3616,  697
14786, 3414, 3425, 3163, 3426
14787, 3171, 3559, 3426, 3723
14788, 1248, 3077, 1271, 3588
14789, 3574, 3917, 3893, 3642
14790, 4095, 1517, 1516, 1492
14791, 4095, 1493, 1517, 1492
14792, 3258, 3052, 3259, 4099
14793, 3737, 3740, 3748, 3750
14794, 2946, 2949, 2954, 3059
14795, 3499, 3877, 3878, 3000
14796, 4099, 1853,  402,   26
14797, 3052, 3051, 1719, 1720
14798, 3052, 3053, 1720, 1717
14799, 2958, 2086, 2085, 2059
14800, 3556, 3559, 3560,  687
14801, 3170, 1639, 1636, 1668
14802, 3170, 1665, 3671, 3724
14803, 2958, 3771, 2059, 3715
14804, 3168, 3663, 3118, 1224
14805, 3919, 3280, 3281, 1898
14806, 3062, 1900, 3063, 3061
14807, 3063, 1900, 1882, 1909
14808, 3812, 1866, 1821, 1816
14809, 4217,  681,  682,  674
14810, 3699, 3613,  691,  690
14811, 1980, 4146, 1954, 1953
14812, 3024, 3344, 4053, 4062
14813, 3527, 3839, 3817, 1013
14814, 3890, 4069, 1946, 3492
14815, 3927, 2028, 3292, 2055
14816, 3840, 4052, 1364, 1363
14817, 3789, 3024, 4053, 1943
14818, 4062, 1770, 1942, 1941
14819, 3641, 1805, 1844, 1806
14820, 3550, 3551,  935,  938
14821, 3618, 4111, 4127, 1804
14822, 3897, 3916, 4132, 3918
14823, 3574,  909, 3917,  908
14824, 3918,  923, 4132,  922
14825, 3258, 1844, 1886, 1885
14826, 4132,  930,  922,  923
14827, 3574,  938,  902,  901
14828, 3103, 3486, 3089, 3095
14829, 3181,  946, 3599,  173
14830, 3740,  407, 3750,  408
14831, 3507, 1010, 3876,  983
14832, 3915,  931,  923,  924
14833, 3188,  408,  409, 1725
14834, 3894,  941, 3574,  942
14835, 3598, 3600, 3574,  942
14836, 3598, 2998, 3599,  943
14837, 3897, 3262, 4141, 4048
14838, 3740, 3179, 3748, 3189
14839, 4035, 4034,  950,  905
14840, 3262, 1719, 1722,  410
14841, 4062, 1862, 4053, 1770
14842, 4062, 4053, 1942, 1770
14843, 3024, 4062, 4053, 1942
14844, 1415, 3070, 1391, 3097
14845, 3790, 1862, 3344, 1897
14846,  419, 1770, 4044, 1941
14847, 3176, 1273, 3277, 1272
14848, 3737, 3113, 3943, 3742
14849, 3502, 3505, 3506, 3285
14850, 2983, 2082, 2108, 2081
14851, 3112, 3109, 3110, 3396
14852, 3950, 1037, 1011, 3480
14853, 3345, 2108, 1580, 2107
14854, 3189, 1728,  407,  408
14855, 3915, 4048, 4141, 1723
14856, 3258, 1844, 3641, 4133
14857, 3948, 3639, 3638,  703
14858, 3634, 1950, 1923, 1924
14859, 3636, 4102, 3726, 1846
14860, 3634, 1951, 3719, 3630
14861, 3632, 3948, 3634, 1950
14862, 3997, 4105, 1453, 1429
14863, 3732,  925,  918,  926
14864, 4141, 4048, 1722, 1723
14865, 3897, 3915, 4048, 4141
14866, 3916, 3892,  917, 3895
14867, 4035,  954, 1593,  953
14868, 3290, 3737, 3750, 3740
14869, 4042, 1690, 1692, 1657
14870, 3231, 3521, 3851, 2024
14871, 3910, 3405, 3142, 1689
14872, 3850, 2078, 2051, 2052
14873, 3332, 3910, 3906, 3435
14874, 3542, 3875, 3827, 4042
14875, 3973, 1675, 1660, 1679
14876, 3816, 3438, 1040, 1067
14877, 3286, 3594, 4159, 3595
14878, 3980, 3176, 1273, 3277
14879, 3656, 3326, 3327, 1259
14880, 3873, 4200, 4077, 3870
14881, 4076, 4078, 4200, 4075
14882, 4193, 4079, 1261, 1260
14883, 3869, 1759,  974,  973
14884, 3327, 1258, 1234, 1235
14885, 3458, 3833, 3956, 3327
14886, 3974, 4203, 3975, 1538
14887, 4201, 3117, 4203, 1341
14888, 4201,  295, 1530, 1533
14889, 4203, 4201,  295, 1530
14890, 4203, 1341,  295, 4201
14891, 4201,  231, 3117, 1127
14892, 3117,  231, 1533,  232
14893, 3974,  232, 1538,  233
14894, 3669, 3975, 3523, 3974
14895, 4203, 1530, 1534, 1538
14896, 3441, 3816, 3429, 1068
14897, 3919, 1861, 1896, 1898
14898, 3601, 1352, 1355, 1354
14899, 3835, 1861, 1859, 1896
14900, 3027, 3665, 1045, 3026
14901, 3060, 3075, 3062, 3061
14902, 3510,  984, 3508,  985
14903, 4194, 4078, 1028, 1027
14904, 4078, 4179, 3870, 4200
14905, 4194, 4181, 1055, 1028
14906, 3815, 3033, 1221, 3809
14907, 3224, 3624, 4065, 1249
14908, 3868, 1756, 1759,  973
14909, 4077, 4200, 1212, 1236
14910, 4192, 4190, 4189, 1078
14911, 4160, 1055, 4159, 1082
14912, 4193, 4187, 1260, 1284
14913, 4193, 4079, 3336, 1261
14914, 3656, 1259, 3327, 1235
14915, 3064, 3441, 3429, 3323
14916, 3130, 3002, 3129, 3136
14917, 3816, 3441, 1067, 1068
14918, 3525, 1041, 3976, 1042
14919, 3072, 3126, 3700, 3959
14920, 3753, 1918, 1912, 1907
14921, 3132, 3280, 3138, 1906
14922, 3079, 4009, 3342, 3061
14923, 3267, 3027, 1017, 3828
14924, 3686, 3902, 1817, 1811
14925, 3684, 3686, 3845, 3685
14926, 3900, 1871, 1839, 1837
14927, 3242, 3296, 3298, 3297
14928, 3684, 3488, 3377, 3248
14929, 3427, 3077, 2935, 3588
14930, 3274, 3825, 4109, 4166
14931, 3246, 4065, 1249, 1225
14932, 3043, 3044, 4050, 3046
14933, 3092, 3368, 3094, 3096
14934, 3269, 3976, 3829, 1015
14935, 2980, 2992, 3231, 3233
14936, 3034, 4180, 4013, 1199
14937, 3062, 1883, 3080, 4019
14938, 3624, 1272, 3588, 1248
14939, 3753, 1912, 4098, 1908
14940, 4126,  947,  904,  944
14941, 4126,  944,  904,  903
14942, 3448, 3446, 3758, 3189
14943, 3188, 3680, 1725, 4048
14944, 3680, 1725, 4048, 1726
14945, 4029, 3501, 1947, 1948
14946, 4099, 1853, 1886, 1921
14947, 3763, 3444, 3447, 3578
14948, 3762,  153,  920, 1595
14949, 2979, 2983, 3065, 2110
14950, 3971, 2060, 2034, 2061
14951, 2061, 3971, 4168, 2034
14952, 3671, 3972, 3672, 3774
14953, 3771, 3765, 2061, 2060
14954, 3169, 3772, 1636, 1578
14955, 3772, 2088, 1568, 1574
14956, 3990, 3991, 3785, 4174
14957, 2959, 4066,   91,  708
14958, 3715, 3771, 3166, 2958
14959, 4066, 2057,   91,   92
14960, 3712,   92, 4066,  707
14961, 2922, 2921, 3664, 1674
14962, 3664,  708,  701,  700
14963, 2922, 3664, 1645, 1674
14964, 4115, 1300, 4088, 1324
14965, 4047, 3946, 3746, 4051
14966, 3728, 3959, 3411, 1884
14967, 3223, 1357, 1356, 1354
14968, 3674, 3363, 3522, 3706
14969, 3816, 3429, 1068, 3525
14970, 3883, 3882, 1706, 1712
14971, 3141, 3142, 1691, 1702
14972, 3407, 1683, 1677, 1624
14973, 3524, 3353, 1097, 1098
14974, 3856, 1658, 3141, 1691
14975, 3383, 1646, 1598, 1673
14976, 3881, 3882, 3883, 1712
14977, 4109, 3883, 3408, 1707
14978, 3531, 3882, 3881, 1714
14979, 1772, 4053, 1943, 1778
14980, 3494, 3495, 2026, 2053
14981, 3289, 3293, 3479, 3196
14982, 3851, 3233, 2024, 2051
14983, 3849, 3851, 2051, 3233
14984, 3929, 1972, 1971, 1945
14985, 3233, 3231, 2023, 3234
14986, 3322, 3331, 3428, 3200
14987, 4052, 1363, 1753,  325
14988, 4052, 1753, 1751,  325
14989, 3727, 1751, 1865, 1750
14990, 3544, 3754, 3160, 3932
14991, 3678, 1865, 1903, 1913
14992, 3324, 1994, 3328, 1995
14993, 2930, 2933, 3060, 3074
14994, 3273, 3272, 3028, 3363
14995, 3727, 1865, 1902, 1750
14996, 2931, 2932, 2933, 3663
14997, 3564, 1349, 1351, 1348
14998, 3549, 3641, 1806,  907
14999, 3250, 4114, 1303, 1279
15000, 3619,  908, 3917,  915
15001, 3622, 3550,  936,  937
15002, 3574, 3551,  901,  908
15003, 3650, 4038, 4088, 1325
15004, 4213, 4216, 4059, 2041
15005, 4219, 1986, 2013, 2012
15006, 4227, 4215, 4225, 4226
15007, 4213, 4227, 2066, 3913
15008, 3313, 3923, 4167, 4163
15009, 4216, 2041, 2040, 2014
15010, 4218, 1449, 1424, 1425
15011, 4167, 4174, 3786, 4226
15012, 3912, 3913, 2067, 2094
15013, 3349, 3576, 3575, 3517
15014, 3576, 3518, 1904, 3517
15015, 3929, 3490, 1971, 1972
15016, 3058, 3270, 3064, 3329
15017, 3519, 3707, 3717, 3716
15018, 3526, 3438, 1040, 3816
15019, 1010, 3950, 1037, 1011
15020, 4088, 1277, 3251, 1301
15021, 3015, 3136, 2976, 3281
15022, 3874, 3888, 1711, 3882
15023, 3941, 3491, 3942, 1999
15024, 3190, 3197, 3200, 3195
15025, 3646, 4014, 4040, 3536
15026, 3339, 1005,  979, 1006
15027, 4123, 3372, 3625, 3460
15028, 3249, 3248, 1231, 1230
15029, 3682, 3687, 3208, 3683
15030, 3573, 3250, 3648, 3251
15031, 3535, 1087, 1113, 1086
15032, 3063, 3061, 1909, 4009
15033, 4038, 1612, 1664, 1673
15034, 1888, 3075, 3062, 2933
15035, 1249, 3176, 3224, 3624
15036, 2967, 3274, 3275, 3266
15037, 3919, 1898, 3239, 1863
15038, 3061, 1909, 4009, 1917
15039, 3342, 3061, 4009, 1917
15040, 3127, 1413, 3122, 3097
15041, 3753, 3964, 3959, 1907
15042, 3662, 3315, 3661, 3364
15043, 2984, 2989, 2986, 3317
15044, 3531, 1699, 3881, 3107
15045, 3874, 3814, 1710, 4143
15046, 3888, 1711, 3882, 1714
15047, 3906, 3435, 1697, 1709
15048, 3814, 3540, 1710, 4143
15049, 3859, 3856, 1658, 3399
15050, 3540, 1710, 4143, 1701
15051, 3186, 3187, 3250, 1278
15052, 4090, 1346, 1546, 1345
15053, 3092, 3860, 3096, 3093
15054, 3264, 1706, 3883, 3882
15055, 1575, 3905, 3405, 4103
15056, 3974, 3670, 3669, 4203
15057, 3874, 3888, 1705, 1711
15058, 4057, 1445, 4228, 1421
15059, 3330, 3540, 3875, 3906
15060, 3861, 2052, 3495, 2053
15061, 3256, 3364, 1682, 3662
15062, 3707, 1901, 3716, 3714
15063, 3576, 3716, 1893, 1904
15064, 3518, 3138, 1919, 3517
15065, 3518, 1919, 3138, 1916
15066, 3279, 1894, 3518, 1916
15067, 3836, 1783, 1788, 1854
15068, 3942, 2000, 3283, 2027
15069, 3283, 2028, 3289, 3294
15070, 3279, 3714, 1894, 3837
15071, 4087, 1989, 1962, 1963
15072, 4196,  703, 4197,   96
15073, 3635, 1922, 3654, 1793
15074, 3629, 3636, 3635, 3640
15075, 3638, 3640,  695,  696
15076, 3638, 1911, 3654,  695
15077, 3654,   97, 4197,  702
15078, 4197,   97, 1922,   96
15079, 4049,  945, 3600,  946
15080, 3181,  174, 3180,  949
15081, 3756,  952, 3180,  175
15082, 4034,  950, 3731,  951
15083, 3730, 4126,  948, 3731
15084, 3760, 1671, 1620, 1678
15085, 3730,  952,  951,  949
15086, 3584, 3024, 1970, 1969
15087, 3585, 1941, 4062, 1942
15088, 3283, 3294, 2027, 2028
15089, 3890, 4069, 1850, 1787
15090, 2947, 2990, 2912, 3232
15091, 3497, 3498, 3501, 3499
15092, 3713, 3511, 3515, 1851
15093, 3508,  958, 3514,  985
15094, 3877, 3876, 3878,  171
15095, 3284, 3290, 2002, 3880
15096, 4028, 1842, 3500, 4032
15097, 4057, 4231, 3855, 1988
15098, 4000, 4231, 3855, 1398
15099, 3775, 4210, 2043, 2016
15100, 4000, 1935, 1962, 1961
15101, 3960, 4000, 1934, 1935
15102, 3960, 3963, 4000, 1935
15103, 4000, 1373, 1374, 1398
15104, 4000, 3962, 1961, 4231
15105, 4060, 3775, 4097, 2042
15106, 4057, 2016, 2015, 1989
15107, 4087, 4228, 1420, 1421
15108, 2355, 4232, 4233, 2354
15109, 2354, 2355, 2344, 4233
15110, 4233, 2355, 2344, 4234
15111, 4233, 4235, 2344, 2370
15112,  905, 4236,  912, 4237
15113, 4238, 4235, 4239, 4240
15114, 2263, 4241, 2293, 4242
15115, 2202, 4235, 4234, 4239
15116, 4243, 4244, 4245, 4246
15117, 4243, 4246, 4247, 4248
15118, 4243, 4247, 4246, 4245
15119, 4243, 4249, 4250, 4251
15120, 4237,  911, 4252, 4253
15121, 4236,  912, 4237, 4253
15122, 4237, 4254, 2372,  905
15123, 4237, 4254, 2360, 2372
15124, 4237,  148, 2372, 2360
15125, 4237, 2360,  147,  148
15126, 4237, 4236, 4254,  905
15127, 4237, 4255, 4252, 4256
15128, 4237,  904,  147, 2361
15129, 4237, 4256, 2361, 2360
15130, 4257, 4258, 4259, 4260
15131, 4258, 4257, 4261, 4260
15132, 4257, 2169, 4262, 4263
15133, 4257, 2168, 4259, 2155
15134, 4257, 4263, 4262, 4261
15135, 4264, 4265, 4266, 2173
15136, 4264, 4267, 4268, 4269
15137, 4270, 2343, 2355, 2203
15138, 4264, 4266, 4271, 4272
15139, 4264, 4265, 2173, 4269
15140, 4257, 4261, 4273, 4263
15141, 4262, 4263, 4274, 4261
15142, 4275, 4262, 4276, 4277
15143, 4276, 4262, 4274, 4278
15144, 4262, 4276, 4277, 4278
15145, 4262, 2170, 4275, 4279
15146, 4262, 4274, 4278, 4261
15147, 4261, 4257, 4280, 4278
15148, 4281, 4282, 4283, 4284
15149, 4281, 2294, 4285, 4284
15150, 4281, 2295, 4284, 4283
15151, 4281, 4286, 4248, 4282
15152, 2368, 2235,  492, 2240
15153, 4281, 4254, 4286, 4284
15154, 4281, 4286, 4254, 4285
15155, 4287, 4288, 4289, 4290
15156, 4287, 4291, 4292, 4293
15157, 4292, 4294,  901, 4295
15158, 4292, 4296, 4297, 4295
15159, 4298, 2249, 4299, 4300
15160, 4298, 4301, 2350, 2245
15161, 4298, 4271, 2244, 4300
15162, 4298, 4302, 4303, 4304
15163, 4298, 4301, 2245, 2244
15164, 4300, 4272, 4264, 4271
15165, 4264, 4305, 4266, 4265
15166, 4271, 4300, 2243, 2244
15167, 4271, 4300, 4272, 2243
15168, 4271, 4306, 4303, 4305
15169, 4298, 4306, 4271, 4300
15170, 4271, 4303, 4307, 4305
15171, 4298, 2244, 4271, 4301
15172, 4271, 4308, 4307, 4301
15173, 4271, 4301, 4309, 4308
15174, 4271, 4307, 4266, 4305
15175, 4310, 4311, 4238, 4312
15176, 4310, 4313, 4240, 4314
15177, 4315, 4316, 4317, 4318
15178, 4310, 2144, 4314, 4319
15179, 4310, 4312, 4238, 4320
15180, 4310, 4321, 2140, 4320
15181, 4322,  461, 2280, 2292
15182, 4322, 4267, 4323, 4318
15183, 2279, 4322, 4323, 4316
15184, 4322, 4316, 2279, 2121
15185, 4322, 2116, 4324, 4325
15186, 4322, 2292, 4324, 2116
15187, 4322, 4318, 4316, 4268
15188, 2260, 4326, 2291, 2268
15189, 4327,   11,  900,  143
15190, 4328,  496, 4329, 2241
15191, 4328, 4330, 4331, 4324
15192, 4328, 4267, 4324, 4331
15193, 4328, 4324, 2291, 2269
15194, 4236, 4332, 4286, 4333
15195, 4243, 4248, 4286, 4282
15196, 4311, 2189, 4312, 4334
15197, 4311, 4335, 4239, 4334
15198, 4311, 4336, 4337, 4338
15199, 4311, 4238, 4239, 4240
15200, 4310, 4238, 4311, 4240
15201, 4339, 4340, 4341, 4259
15202, 4342, 2167, 4259, 4343
15203, 4344, 4251, 4343, 4342
15204, 4342, 4345, 4340, 4346
15205, 4345, 4251, 4347, 4346
15206, 4346, 4342, 4345, 4251
15207, 4258, 4348,  465, 2255
15208, 4258, 2283, 4280, 2255
15209, 4258, 4339, 2275, 2257
15210, 4258, 2257,  465, 2155
15211, 4258, 4257, 2156, 4280
15212, 4349, 4327, 2369,  487
15213, 4294, 4327, 2369, 4349
15214, 4327, 4294, 2375,  900
15215, 4327, 4349, 4294, 4350
15216, 4327,  166, 4350,  900
15217, 4351, 2270, 2298,  510
15218, 4352, 4353, 2235, 4354
15219, 4354, 4352, 4353, 4355
15220, 4355, 4354, 4356, 4353
15221, 4354, 2235, 4352, 2368
15222,  485, 2207, 4357, 2208
15223, 4329,  497,  496, 2268
15224, 2240, 4356, 4354, 2235
15225, 2235, 2240, 2368, 4354
15226, 4358, 4255, 4359, 4252
15227, 4252, 4255, 4359, 4256
15228, 4237, 4236, 4255, 4256
15229, 4255, 4360, 4236, 4253
15230, 2206, 2205, 4361, 4236
15231, 4237, 4254, 4236, 2360
15232,  905, 4286,  912, 4236
15233, 4286, 4360, 4249, 4253
15234, 4360, 2193, 4255, 4236
15235, 4255, 4256, 2206, 4359
15236, 4237, 4252, 4255, 4253
15237, 4307, 4362, 4363, 4364
15238, 4255, 4358, 4253, 4252
15239, 4311, 4240, 4239, 4365
15240, 4238, 4320, 4366, 4367
15241, 4351,  510, 2298,  154
15242, 4320, 4238, 4368, 4367
15243, 4310, 4312, 4336, 4311
15244, 4369,  155,  934,  933
15245, 4346,  933,  925,  932
15246, 4238, 2201, 4235, 4368
15247, 4310, 4336, 4370, 4319
15248, 4310, 4238, 4368, 4320
15249, 4371, 4372, 4373, 4374
15250, 4371,  504, 4372, 2272
15251,  504, 2328,  503, 2273
15252, 4371, 4375, 4376, 4377
15253, 4373, 4371, 4377, 4375
15254, 4371, 4377, 2273, 2284
15255, 4310, 4319, 4314, 4337
15256, 4233, 2353, 4378, 2370
15257, 4365, 2354, 4232, 2324
15258, 4310, 4314, 2144, 2145
15259, 4302,   28,  444,  443
15260, 2354, 4240, 4365, 4233
15261, 4238, 4240, 4378, 4235
15262, 4292, 4296, 4295, 4379
15263, 4380, 4379, 4381, 4382
15264, 4296, 4383, 2195, 4290
15265, 4296, 4357, 4382, 4380
15266, 2208, 4380, 4357, 4296
15267, 4352, 4353, 4355, 2210
15268, 4296, 4380, 4384, 2195
15269, 4249, 4385, 4343, 4386
15270, 4249, 4253, 4360, 4386
15271, 4249, 2179, 4250, 4251
15272, 4243, 4249, 4347, 4282
15273, 4243, 4282, 4387, 4248
15274, 4249, 4247, 4250, 4333
15275, 4243, 4249, 4251, 4347
15276, 4286, 4249, 4282, 4253
15277, 4388, 2278,  458, 2277
15278, 4369, 2276,  155,  156
15279, 4389, 2277, 4390, 4391
15280, 4388, 4392, 4391, 4393
15281, 4388, 4394, 4391, 4389
15282, 4388, 4393, 4394, 4389
15283, 4388, 4389, 2131, 4393
15284, 4372, 2323,  505,  504
15285, 2271, 4395, 2323, 4372
15286, 4396, 2240, 2351, 4301
15287, 4372, 2323, 2271,  505
15288, 4372, 2253, 4397, 4374
15289, 4372, 4395, 4373, 4374
15290, 4398,  934,  927,  926
15291, 4372, 4397, 2271, 4395
15292, 4372, 4374, 2272, 2253
15293, 4399, 4394, 4391, 4400
15294, 4399, 4391, 4390, 4401
15295, 4328, 2246,  496, 2241
15296, 4402, 4403, 4375, 4336
15297, 4399, 2137, 4403, 2142
15298, 4400, 4394, 2132, 4399
15299, 4399, 4375, 4377, 4404
15300, 4369,  155, 4351,  934
15301, 4326,  473, 2260, 2252
15302, 4369, 2270, 4351, 2276
15303, 4369, 4351, 2270, 4405
15304, 4369, 4244, 4405, 4406
15305, 4407, 4408, 4309, 4272
15306, 2276, 4405, 4406, 4369
15307, 4358, 4409, 4410, 4385
15308, 4358, 4252,  911, 4253
15309, 4358, 2194, 4410, 4380
15310, 4358, 4410, 2194, 4385
15311, 4255, 2193, 4360, 4359
15312, 2206, 4236, 4256, 4255
15313, 4255, 4253, 4358, 4360
15314,  156, 4346, 2281,  932
15315, 2338, 4411, 2208, 4357
15316, 4358, 4385, 2194, 4360
15317, 4330, 2285, 2269,  495
15318, 4330, 2285,  462, 2292
15319, 2292, 4330, 2269, 4324
15320, 4330, 4325, 4324, 2111
15321, 4346,  926,  925,  933
15322, 4330, 2285,  495,   27
15323, 4330, 2285,   27,  462
15324, 2368,  491,  492, 2235
15325, 4267, 4324, 4331, 4325
15326, 4412, 4269, 4413, 4267
15327, 4267, 4268, 4325, 4414
15328, 4267, 4331, 4415, 4325
15329, 4267, 4412, 4272, 4416
15330, 4261, 4417,  930,  922
15331, 4261, 4258, 4417, 4280
15332, 4262, 2157, 4277, 4275
15333, 2292, 2111, 2116,  462
15334, 4257, 4262, 4278, 4261
15335, 4418, 2232, 2226, 2227
15336, 4234,  480,  479, 2202
15337, 4274, 4419, 4261, 4420
15338, 4261, 4419, 4278, 4421
15339, 4422, 4423, 4424, 4425
15340, 4422, 4353, 4424, 4426
15341, 4422, 4289, 4424, 4427
15342, 4422, 4383, 2196, 4426
15343, 4428, 4411, 4383, 2209
15344,  486, 2334, 2209, 2338
15345, 2117, 2122, 4268, 2116
15346, 4428, 4352, 2210, 4426
15347, 4428, 2196, 4383, 4426
15348, 4429, 2199, 4307, 4430
15349, 4429, 4307, 2199, 4362
15350, 4429, 2366, 4362, 2337
15351, 4429, 4367, 4430, 4431
15352, 4429, 4430, 4367, 2200
15353, 4429, 2358, 4363, 2366
15354, 4429, 2358, 4431, 4363
15355, 4336, 4338, 4334, 4432
15356, 4336, 4312, 4370, 4433
15357, 4336, 4400, 4319, 4403
15358, 4311, 4338, 4337, 4365
15359, 4310, 4336, 4319, 4337
15360, 2343, 4434, 2203, 4270
15361, 4434, 2203, 4270, 4435
15362, 4435, 4434, 2204, 4436
15363, 4435, 4434, 2203, 2204
15364, 4358, 4252,  910,  911
15365, 4271, 4309, 2244, 2243
15366, 4410, 4437, 4438, 4263
15367, 4358,  917, 4386,  910
15368, 4358, 4386,  911,  910
15369, 4358, 4380, 4359, 2194
15370, 4379, 4439, 4438, 4410
15371, 4410, 4409, 4437, 4273
15372, 2132, 4399, 2137, 4400
15373, 2292,  462, 2116,  461
15374, 2131, 4389, 2132, 4393
15375, 4389, 2132, 4393, 4394
15376, 4394, 4440, 4400, 2132
15377, 4394, 4441, 4442, 4392
15378, 4394, 4392, 4442, 4393
15379, 4295, 4296, 4382, 4379
15380, 4411, 4287, 4349, 4289
15381, 4411, 4297, 4357, 2338
15382, 4411, 2352, 4349, 4294
15383, 4411, 4349, 2348, 4443
15384, 4444, 4331, 2247, 2246
15385, 2376, 2338, 2348, 4443
15386, 4241, 4242, 2263, 4445
15387, 4241, 4445, 2158, 4418
15388, 4241, 2146, 4445, 2263
15389, 4241, 2158, 4445, 2146
15390, 4241, 2171, 4407, 4408
15391, 4281, 4284, 2295, 2294
15392, 4285, 2367, 4254, 2356
15393, 4285, 2356,  517, 2349
15394, 4286, 4285, 4446, 4332
15395, 4285, 4447, 4254, 4284
15396, 4285, 4446, 4448, 2299
15397, 4286,  912, 4236, 4253
15398, 4284, 4286,  905, 4254
15399, 4303, 4363, 4307, 4305
15400, 4303, 4301, 4307, 4364
15401, 4298, 4271, 4303, 4301
15402, 4303, 4305, 2119, 4363
15403, 4303, 4306, 2114, 2119
15404, 4449, 4450, 4451, 4452
15405, 4453, 2311, 4454, 2312
15406, 4449, 2316, 4455, 4456
15407, 4449, 4456, 4450, 2316
15408, 4449, 4453, 4456, 4457
15409, 4458, 4459, 2312, 4449
15410, 4244, 4246, 2302, 4245
15411, 4243, 4245, 4244, 4251
15412, 4244, 4246, 4460, 2297
15413, 4369, 4244, 4351, 4405
15414, 4244, 2298, 4351, 4405
15415, 4303, 4364, 4307, 4363
15416, 4271, 4307, 4303, 4301
15417, 4307, 4362, 4396, 2199
15418, 4307, 4265, 4430, 2186
15419, 4307, 4266, 2186, 4308
15420, 4375, 4338, 2327, 4402
15421, 4375, 4376, 4377, 4404
15422, 4375, 4404, 4461, 2332
15423, 4375, 4373, 2328, 2327
15424, 4264, 4267, 4272, 4415
15425, 4305, 4264, 4306, 4462
15426, 4307, 4305, 4363, 4265
15427, 4264, 4305, 4306, 4271
15428, 4264, 4462, 4305, 4265
15429, 4264, 4462, 4269, 4268
15430, 4305, 2119, 4462, 4306
15431, 4349, 2214, 4293, 4350
15432, 4411, 4289, 4349, 4443
15433, 4349, 2219, 4289, 4293
15434, 4287, 4349, 4289, 4293
15435, 4388,  458, 4389, 2277
15436, 4278, 4277, 2265, 4276
15437, 4391, 2277, 4390, 2261
15438, 4399, 4389, 4390, 4391
15439, 4462, 4306, 2119, 2118
15440, 4390, 4391, 2261, 2149
15441, 2150, 2149, 4401, 4390
15442, 4390, 4374, 2253, 2284
15443, 2253, 4390, 2150, 4374
15444, 4310, 4320, 4370, 4312
15445, 4367, 4320, 4321, 4368
15446, 4320, 4440, 4312, 4366
15447, 4320, 2139, 4370, 2134
15448, 4320, 4463, 4366, 4367
15449, 4375, 4404, 4403, 4461
15450, 2149, 4401, 4390, 4391
15451, 4311, 4336, 4334, 4312
15452, 4341, 2282, 2257, 2281
15453, 4399, 4401, 4400, 4391
15454, 4399, 4336, 4373, 4375
15455, 4375, 4373, 4399, 4377
15456, 4401, 4391, 2149, 2162
15457, 4390, 4401, 2150, 4374
15458, 4401, 4391, 2162, 4433
15459, 4336, 4401, 4433, 4400
15460, 4440, 4312, 4366, 4433
15461, 4320, 4312, 4440, 4370
15462, 2133, 4400, 4370, 4440
15463, 4322, 4267, 4318, 4268
15464, 2140, 4320, 2139, 4310
15465, 2237, 4408, 2238, 2232
15466, 4445, 2264, 2263,   31
15467, 4320, 4370, 2133, 2134
15468, 4394, 4433, 4440, 4441
15469, 4259, 2155, 2154, 2257
15470, 4399, 4394, 2132, 4389
15471, 4440, 4433, 4400, 4370
15472, 4320, 4440, 4366, 4464
15473, 4439, 4437,  916, 4438
15474, 4252, 4439, 4381, 4380
15475,  909, 4439, 4438, 4379
15476, 4439, 4379,  909, 4381
15477, 4465, 4276, 2267, 2216
15478, 4465, 2217, 4288, 4276
15479, 4274, 4276, 4465, 4288
15480, 4465, 4419, 4466, 4467
15481, 4465, 4419, 4421, 4278
15482, 4274, 4419, 4465, 4278
15483, 4465, 4276, 2216, 2217
15484, 4465, 2267, 4467, 2211
15485, 4274, 4288, 4465, 4468
15486, 4419, 4469,  921,  922
15487, 4465, 2211, 4467, 4466
15488, 4419, 4467,  928, 4466
15489, 4419, 4466,  921, 4469
15490, 4265, 4470, 4269, 4462
15491, 4471, 4470, 4462, 2123
15492, 4471, 4265, 4363, 4462
15493, 4417,  159,  929,  160
15494, 4417, 4419,  929,  922
15495, 4261, 4420,  922,  923
15496, 4417, 4280, 2283, 4421
15497, 4257, 4273, 4261, 4260
15498, 4261, 4437, 4260, 4273
15499, 4260, 4417,  930, 4261
15500, 4417, 2275,  930,  159
15501, 4258, 4417, 2275, 4260
15502, 4257, 4259, 4258, 2155
15503, 4472, 4473, 4445, 4418
15504, 4472, 2264, 4242, 4445
15505, 4472, 4418, 4474, 4275
15506, 4354, 2368, 2347, 2346
15507, 2226, 2286, 2264, 4472
15508, 4474, 2286, 2226, 4472
15509, 2221, 4474, 2286, 2226
15510, 4262, 4278, 4277, 2156
15511, 2156, 4262, 4278, 4257
15512, 4309, 2243, 2238, 2244
15513, 4257, 2169, 4273, 2168
15514, 4261, 4420, 4419,  922
15515,  144, 2363,  902,  901
15516, 4279, 4276, 4262, 4274
15517, 4268, 4318, 4316, 4269
15518, 4269, 4413, 4267, 4318
15519, 4317, 4318, 2160, 4315
15520, 4318, 4316, 4475, 4323
15521, 4316, 4317, 4318, 4475
15522, 4447,  150, 2294,   12
15523, 4318, 4326, 2147, 4413
15524, 4318, 4413, 2147, 2160
15525, 4318, 4269, 4413, 2160
15526, 4329, 4326, 4476, 2260
15527, 4329, 4416, 4477, 4476
15528, 2263, 2260, 2293, 4476
15529, 4328, 4329, 4416, 2241
15530, 4478, 2248,  441, 2247
15531, 4273, 4259, 4479, 4409
15532, 4412, 2159, 4413, 2160
15533, 4397, 4480, 4458, 4395
15534, 4397, 4374, 4480, 4395
15535, 4481, 2214, 2213,  164
15536, 4397, 4480, 2151, 4458
15537, 4397, 2271, 2258,  469
15538, 2258, 4397, 4458, 2271
15539, 4397, 2253,  469,  470
15540, 4397, 2253,  470, 2150
15541, 4397, 2150, 4374, 2253
15542, 4482,  481, 4434, 2204
15543, 4482, 2335,  482, 2205
15544, 4482, 4448, 2357, 2335
15545, 4482, 2335,  481,  482
15546, 4264, 4267, 4412, 4272
15547, 4264, 4268, 4267, 4414
15548, 4267, 4269, 4318, 4268
15549, 4264, 4412, 2173, 4266
15550, 4269, 4412, 2160, 2173
15551, 2368, 2240, 2351, 4396
15552, 4269, 4318, 4316, 4315
15553, 4264, 4268, 4414, 4462
15554, 4462, 4471, 4265, 4470
15555, 4383, 2196, 4290, 4427
15556, 4383, 4290, 2196, 2195
15557, 4289, 4287, 4290, 4383
15558, 4424, 4426, 2224, 4289
15559, 4426, 4289, 4424, 4422
15560, 2196, 2210, 2197, 4422
15561, 4289, 4426, 2224, 4443
15562, 4483, 2256, 4484, 4485
15563, 4309, 2238, 2239, 2244
15564, 2256, 2153, 4485, 4483
15565, 2274, 4459, 2258, 4483
15566, 4483, 2153,  468,  467
15567, 4483, 2256, 2153,  467
15568, 2279,  459,  460, 2126
15569, 4486, 2330, 4314, 4337
15570, 4486, 4314, 2330,  452
15571, 4486, 4314,  452, 2144
15572, 4486, 4314, 2144, 4319
15573, 4486, 4461,  453, 2331
15574,  489, 2225,  490, 2376
15575, 4426, 4352, 2376, 4428
15576, 4428, 4426, 4443, 2376
15577, 4354, 4352, 4355, 2347
15578,  491, 2368, 2347, 4352
15579, 4352, 4355, 2347, 2334
15580, 4352, 2368, 2347, 4354
15581, 4352,  491, 2230,  490
15582, 4342, 4341, 4344, 4406
15583, 4344, 4341, 2154, 2259
15584, 4344, 4405, 4406, 2287
15585, 4344, 4405, 2256, 4485
15586, 4344, 4405, 4485, 4245
15587, 4244, 4405, 4344, 4245
15588, 4467, 2289, 4421,  928
15589, 4467, 4421, 2289, 2267
15590, 4419,  928, 4467, 4421
15591, 4467,  161,   14,  502
15592, 4467,  161,  502, 2267
15593, 4442, 4441, 4464, 4315
15594, 4442, 4464, 2128, 4470
15595, 4442, 4315, 4470, 4316
15596, 4442, 4470, 2127, 4316
15597, 4376, 4377, 2290, 2273
15598, 4376, 2333,  503,   30
15599, 4375, 4376, 4404, 2333
15600, 4376,   30,  456,  455
15601, 4376, 4404, 2333,  455
15602, 4376, 2273,  456,  503
15603,  905, 4447, 4284, 4254
15604, 4447,  906,  149,  148
15605, 4447, 4284,  150,  906
15606, 4285, 4447, 4284, 2294
15607, 4327,  487,   11, 2369
15608, 4447, 4254, 2372, 2356
15609,  495, 4328, 4330, 2246
15610, 4328, 4324, 4326, 2291
15611, 4322, 4324, 2280, 4323
15612, 4330, 4325, 4444, 4331
15613, 4324, 2111, 4325, 2116
15614, 4301, 2239, 2245, 2244
15615, 4324, 4323, 2291, 2280
15616, 2277, 4388, 4391, 4389
15617, 4329,  496,  497, 2241
15618, 4388, 4392, 2254, 2149
15619, 4261, 4437, 4273, 4420
15620, 4437, 4260, 4409,  924
15621, 4410, 4379, 4439, 4380
15622, 2195, 4410, 4380, 4384
15623, 4409,  917, 4386, 4358
15624, 4437, 4409,  917,  924
15625, 4316, 4269, 4470, 4268
15626, 4322, 4316, 4318, 4323
15627, 4407, 2159, 4412, 2172
15628, 4424, 4353, 2234, 4426
15629, 4412, 4266, 4272, 4309
15630, 4266, 2172, 4309, 4412
15631, 4264, 4269, 2173, 4412
15632, 4298, 2250, 2245, 2350
15633, 4388, 4392, 4475, 2254
15634, 4388, 4393, 2278, 4475
15635, 4389, 2277,  457, 2290
15636, 4399, 4389, 2136, 4377
15637, 4389, 4377, 2277, 2290
15638, 4389, 4399, 2137, 2132
15639, 4399, 2137, 4400, 4403
15640, 4401, 4400, 4391, 4433
15641, 4388, 4393, 2131, 2278
15642, 4389, 2277,  458,  457
15643, 4388, 2131, 4389,  458
15644, 4274, 4465, 4469, 4468
15645, 4466, 4487,  163,  921
15646, 4261,  923, 4437, 4420
15647, 4466,  162,  163, 2212
15648, 4467,  162, 4466, 2211
15649, 4476, 4267, 4413, 4326
15650, 4454, 4250, 4453, 4245
15651,  158,  931, 2275,  930
15652, 4311, 4335, 4338, 4365
15653, 4385, 4360, 4249, 2180
15654, 4335, 4338, 4455, 4334
15655, 4336, 4373, 4375, 4338
15656, 2338, 4357, 2339, 4297
15657, 4399, 4373, 4336, 4401
15658, 4375, 4402, 4461, 4403
15659, 4399, 4377, 4376, 4404
15660, 4404, 4461, 2332,  454
15661, 4376, 4404,  455, 2141
15662, 4404,  454, 2332,  455
15663, 4299, 4304,  442, 2249
15664, 4299, 4478, 4414, 4300
15665, 4299, 2114,  441,  442
15666, 4299,  441, 4478, 2248
15667, 4375, 2332, 4461, 4402
15668, 4486, 4461, 4402, 4319
15669, 4404, 4461,  454, 2142
15670, 4486,  453, 4461, 2143
15671, 4461,  453, 2331,  454
15672, 4282, 4387,  920,  919
15673, 4282, 4387,  919, 4347
15674, 4281, 4283, 4282, 4248
15675, 4282, 4283,  920, 4387
15676, 4478, 4325, 4414, 4415
15677, 4478, 4444, 2112, 4325
15678, 4478, 4444, 2247,  440
15679, 4299, 2113, 4478,  441
15680, 4478, 2113,  440,  441
15681, 4421, 2289, 2283, 4417
15682, 4258, 4260, 2275, 4339
15683, 4417, 4260,  930, 2275
15684, 2350, 2250, 2245,  494
15685, 4280, 4257, 4261, 4258
15686, 4280, 4421, 2288, 2283
15687, 4351,  934,  155,   13
15688, 4369, 2276, 4351,  155
15689, 4244, 4460, 4351, 2298
15690, 4376,   30,  503,  456
15691, 4351,   13,  510,  154
15692, 4351,  154, 4460,  934
15693, 4246, 4460, 4488, 4398
15694, 4244, 4245, 2302, 2303
15695, 4354, 2240, 2368, 4396
15696, 4353, 4355, 4308, 4356
15697, 4354, 2346, 4355, 4396
15698, 4354, 4355, 2346, 2347
15699, 4352, 4355, 2334, 2210
15700, 4355,   32, 2334, 2210
15701, 4355, 2346,  475, 2198
15702,  901,  900,  143, 2375
15703, 4355,  475, 2346,   32
15704, 4415, 4300, 4272, 4264
15705, 2259,  467, 2153, 2256
15706, 4306, 4264, 4300, 4414
15707, 4362, 4396, 2199, 2345
15708, 4299, 4300, 4414, 4306
15709, 4298, 4271, 4306, 4303
15710, 4298, 4303, 4306, 4304
15711, 4264, 4267, 4269, 4412
15712, 4271, 2243, 4272, 4309
15713, 4489, 4474, 4276, 2222
15714, 4274, 4468, 4469, 4291
15715, 4274, 4261, 4419, 4278
15716, 4489, 4288, 4289, 2223
15717, 4288, 4293, 4289, 2218
15718, 4419,  929,  921,  928
15719, 4329, 2268, 2293,  497
15720, 4274, 4278, 4465, 4276
15721, 4489, 4288, 2222, 4276
15722, 4297, 2374, 2363, 2339
15723, 4287, 4290, 4384, 4263
15724, 4288, 4275, 4279, 4276
15725,  481, 4434, 2203, 2343
15726, 4434, 2343,  481, 2357
15727, 4434,  515, 2343, 2357
15728,  515, 4270, 2309, 4434
15729, 2310, 4452, 4490, 4270
15730, 4403, 2138, 2143, 2137
15731, 4298, 2244, 2245, 2250
15732, 2309, 4490, 4434, 4270
15733, 4434, 4448, 4436, 4490
15734, 4490, 4270, 4435, 4434
15735, 2274, 2313, 2258, 4459
15736, 2260,  474, 2147, 2146
15737, 4483, 4459, 4484, 2274
15738, 4459, 4457, 4449, 4458
15739, 4382, 4357, 2339, 2207
15740, 4459, 4457, 4458, 2151
15741, 4423, 4418, 4408, 2171
15742, 4491, 4425, 4353, 4424
15743, 4422, 4492, 2183, 4427
15744, 4423, 4408, 4418, 2227
15745, 4427, 4423, 4422, 4492
15746, 4489, 4423, 4492, 2227
15747, 4423, 2171, 4408, 2184
15748, 2233, 4491, 2228, 4408
15749, 4491, 2228, 4408, 4423
15750, 4307, 4305, 4265, 4266
15751, 4301, 4364, 2350, 2351
15752, 4298, 4301, 4364, 2350
15753, 2193, 2207, 2194, 4359
15754, 4353, 4425, 4308, 2185
15755, 4356, 4355, 4308, 4396
15756, 4353, 4491, 4356, 4425
15757, 4422, 2210, 2197, 4353
15758, 4302,  444, 2371,  445
15759, 4491, 4408, 2238, 4309
15760, 4408, 4309, 4425, 4407
15761, 4491, 4408, 4309, 4425
15762, 4422, 4353, 2197, 4425
15763, 4423, 4491, 4425, 4408
15764, 4347,  926,  918,  925
15765, 4258, 2255, 2257, 2275
15766, 4425, 4423, 4424, 4491
15767, 4437, 4260,  924,  923
15768, 4354, 4353, 2235, 4356
15769, 4423, 4491, 2228, 4424
15770, 4486,  452,  453, 2143
15771, 4472, 4275, 4474, 4277
15772, 4233, 4240, 2353, 2354
15773, 4233, 4240, 4378, 2353
15774, 4314, 4313, 2329,  451
15775, 4262, 2170, 2169, 2156
15776, 4314, 2144,  451,  452
15777, 4282, 4284, 4286,  905
15778, 4284, 4283,  151,  913
15779, 4285,  518, 4447, 2294
15780, 4447,   12,  149,  150
15781, 4285, 4447,  518, 2356
15782, 4286, 4360, 4236, 4333
15783, 4281, 4286, 4247, 4248
15784,  906,  905, 4447, 4284
15785, 2278, 2126,  459, 2279
15786, 4284,  150,  906,  151
15787, 4474, 4277, 4276, 2265
15788, 4472, 4277, 4473, 4275
15789, 4474, 4277, 2265, 2286
15790, 4474, 4418, 2226, 2227
15791, 4472, 4275, 4473, 4418
15792, 4472, 4474, 4418, 2226
15793, 4282, 4248, 4283, 4387
15794, 4283, 4248, 2295, 2296
15795, 4284,  151, 4283, 2295
15796, 4283,  152, 4488, 2296
15797, 4283,  913,  152,  151
15798, 4336, 4433, 4334, 4312
15799, 4310, 2364, 4378, 2140
15800, 4368, 2364, 4378, 4310
15801, 4394, 4400, 4440, 4433
15802, 4336, 4400, 4433, 4370
15803, 4310, 4238, 4240, 4378
15804, 4423, 4492, 2227, 4418
15805, 4407, 4408, 2171, 2184
15806, 4241, 2231, 4477, 4242
15807, 4241, 4477, 2231, 2232
15808, 4408, 4418, 2227, 2232
15809, 4440, 4433, 4370, 4312
15810, 4442, 4315, 4464, 4470
15811, 4366, 2175, 2174, 4441
15812, 4366, 2175, 4433, 4312
15813, 4441, 4464, 4315, 4366
15814, 4441, 4392, 2161, 4315
15815, 4441, 2174, 4315, 2161
15816, 4241, 2146, 4476, 2159
15817, 4290, 2182, 4263, 4279
15818, 4290, 2183, 4427, 2196
15819, 4290, 4427, 2183, 2182
15820, 4427, 4383, 4422, 4289
15821, 4296, 4297, 4357, 4411
15822, 4288, 4290, 4427, 4289
15823, 4287, 4290, 4296, 4384
15824, 4423, 2171, 4492, 4418
15825, 4489, 4423, 2228, 4424
15826, 4423, 4489, 4427, 4424
15827, 4279, 4492, 4489, 4427
15828, 4279, 4492, 2183, 2170
15829, 4328, 2268, 4329,  496
15830, 4492, 4275, 4418, 2170
15831, 4330, 2111, 4444, 4325
15832, 4330, 4444, 2246, 4331
15833, 4330, 4444,  439, 2246
15834, 4478, 4444,  440, 2112
15835, 4444,  439, 2246,  440
15836, 4285, 4332, 4361, 4448
15837, 4361, 4254, 2367, 2360
15838, 4333, 2205, 4236, 4332
15839, 4270, 4232, 2355, 2314
15840, 4452, 4450, 4435, 4270
15841, 4435, 4451, 4436, 2191
15842, 4270, 2310, 4450, 2315
15843, 4270, 2315, 4232, 2314
15844, 4372, 4397, 4395, 4374
15845, 2151, 4480, 4397, 2150
15846, 4480, 4455, 4432, 4456
15847, 4480, 4374, 2150, 2163
15848, 4480, 4395, 4374, 4373
15849, 4480, 4338, 4395, 4373
15850, 4480, 4374, 2163, 4432
15851, 4372, 4395, 2323, 4373
15852, 4395, 2317, 4455, 4458
15853, 4373, 4432, 4480, 4338
15854, 4338, 2322, 4395, 4373
15855, 2307, 4454, 4453, 4245
15856, 2312, 4449, 4453, 2311
15857, 2312, 4454, 4453, 2307
15858, 4247, 2301, 2302, 4454
15859, 4452, 4454, 4493, 4453
15860, 2311, 4449, 4453, 4452
15861, 4454, 4250, 4247, 4493
15862, 4426, 4352, 2230, 2376
15863, 4444, 4415, 4331, 4325
15864, 4380, 4359, 2194, 2207
15865, 4489, 2222, 4288, 2223
15866, 4287, 4289, 4288, 4293
15867, 4287, 4274, 4438, 4291
15868, 2219, 4443, 4349, 4289
15869, 4292, 4411, 4294, 4297
15870, 4411, 4383, 4289, 4443
15871, 4261, 4273, 4263, 4420
15872, 4274, 4261, 4263, 4420
15873, 4263, 4273, 2169, 2182
15874, 4328, 4330, 4324, 2269
15875, 2182, 4273, 4410, 4263
15876, 4274, 4263, 4438, 4420
15877, 4366, 4315, 4494, 4471
15878, 4471, 4470, 2123, 2128
15879, 4464, 4463, 2134, 2129
15880, 4459, 4484, 4453, 4485
15881, 4484, 4245, 4453, 4485
15882, 4484, 4405, 2303, 4245
15883, 4484, 2256, 4405, 4485
15884, 4484, 4245, 2303, 2308
15885, 4483, 2274, 4484, 2256
15886,  508, 2308, 2274, 2266
15887, 2308, 2274, 2266, 4484
15888, 4495, 4232, 4270, 2315
15889, 2324, 4240, 4365, 2354
15890, 4232, 4365, 2324, 2319
15891, 4233, 4232, 4234, 4239
15892, 4435, 4450, 4451, 2190
15893, 4482, 4436, 4434, 4448
15894, 4437, 4438, 4420,  916
15895, 4233, 2354, 4232, 4365
15896, 4330,  495, 2246,  439
15897, 2319, 2355, 2354, 4232
15898, 4327,  143, 2375, 2369
15899, 2355, 4495, 4234, 4232
15900, 2232, 4477, 2237, 4408
15901, 2263, 4476, 2293, 4241
15902, 2236, 4242,  498, 4329
15903, 4407, 4412, 4477, 4272
15904, 4407, 4408, 4272, 4477
15905, 2147, 4496, 4326, 4318
15906, 4241, 4476, 4329, 4477
15907, 4241, 4418, 4242, 4445
15908, 4329, 2236, 4477, 4416
15909, 4241, 4407, 4477, 4408
15910, 4299, 2114, 4306, 2113
15911, 4266, 2186, 4308, 2185
15912, 4267, 4318, 4413, 4326
15913, 4407, 4309, 4412, 4272
15914, 4266, 2185, 4425, 2172
15915, 4266, 4309, 4425, 4308
15916, 4480, 4373, 4374, 4432
15917, 4480, 2151, 4457, 2164
15918, 4455, 4338, 4395, 4480
15919, 4335, 4455, 4456, 4334
15920, 4455, 4432, 4456, 4334
15921, 4480, 4456, 2164, 4457
15922, 4452, 2311, 4454, 4453
15923, 4449, 4455, 2317, 4458
15924, 4449, 2317, 4455, 2316
15925, 4335, 4450, 2316, 2315
15926, 4335, 2316, 4455, 2321
15927, 4256, 2361, 2362, 4381
15928, 4381, 2361, 2362,  903
15929, 4478, 4300, 2248, 4415
15930, 4358, 4360, 4253, 4386
15931, 4237, 4252, 2361, 4256
15932, 4252, 4381, 4256, 4380
15933, 4352,  491,  490, 2347
15934, 4471, 2129, 2128, 2123
15935,  910, 4439, 4381, 4252
15936, 4358, 4410, 4439, 4380
15937, 4328, 4326, 4267, 4416
15938, 4326, 4323, 4496, 2252
15939, 4326,  473, 4496, 2147
15940, 4326, 4416, 4476, 4267
15941, 4326, 4323, 2252, 2291
15942, 2147, 2146, 4413, 4326
15943, 4415, 2243, 2248, 2242
15944, 4307, 4430, 4265, 4363
15945, 4429, 4363, 4362, 2366
15946, 4429, 4307, 4363, 4430
15947, 4298, 4304, 2249, 2250
15948, 4362, 4396, 2345, 2373
15949, 4362, 2366, 4363, 4364
15950, 4357, 2208, 2338,  485
15951, 2269,  495, 4328, 4330
15952, 4454, 4250, 4245, 4247
15953, 4250, 4485, 2166, 4453
15954, 4250, 4493, 2179, 4333
15955, 4454, 4250, 4493, 4453
15956, 4250, 4453, 2166, 2179
15957, 4243, 4250, 4249, 4247
15958, 4244, 2298, 4405, 2303
15959, 2270, 2303, 2266, 4405
15960, 4330,   27,  495,  439
15961, 4484, 2266, 4405, 2256
15962, 4344, 4250, 4485, 2166
15963, 4244, 4246, 2297, 2302
15964, 4369,  933,  156,  155
15965, 2287, 2276, 4405, 4406
15966, 4264, 4265, 4269, 4462
15967, 4269, 4470, 4268, 4462
15968, 4264, 4272, 4412, 4266
15969, 4315, 4393, 4317, 4316
15970, 4321, 4431, 4367, 4368
15971, 4414, 2113, 2118, 2112
15972, 4368, 4431, 2365, 4321
15973, 4444, 2246, 2247,  440
15974, 4321, 4431, 2130, 4463
15975, 4321, 4431, 2365, 2130
15976, 2130, 4321, 2135, 2365
15977, 2365, 4321, 2135, 2364
15978, 4401, 4374, 4432, 2163
15979, 4400, 4391, 4433, 4394
15980, 4374, 4373, 4390, 4401
15981, 4440, 2133, 4442, 4464
15982, 4471, 4464, 4315, 4470
15983, 4336, 4433, 4401, 4432
15984, 4433, 2176, 4432, 4334
15985, 4366, 4441, 4433, 2175
15986, 4410, 4437, 4263, 4273
15987, 4296, 4411, 2208, 4383
15988, 4287, 4411, 4383, 4289
15989, 4439, 4437, 4409,  917
15990, 4379,  908, 4438,  909
15991, 4292,  908, 4379, 4295
15992, 4379, 4381, 4439, 4380
15993, 2302, 4247, 4245, 4246
15994, 4243, 4398, 4244, 4246
15995, 4244, 4398, 4251, 4406
15996, 4251, 4344, 4250, 4245
15997, 4250, 4245, 4485, 4453
15998, 4484, 4245, 2308, 2307
15999, 2258, 4483,  468, 2274
16000, 4243, 4387, 4347, 4398
16001, 4335, 4456, 2316, 4450
16002, 4480, 4456, 4432, 2164
16003, 4449, 4457, 4480, 4458
16004, 4490, 2310, 4270, 2309
16005, 4435, 2203, 4495, 2190
16006, 4436, 4490, 4448, 4332
16007, 2205, 4436, 4482, 4332
16008, 4493, 4436, 4490, 4452
16009, 4452, 4270, 4435, 4490
16010, 4451, 4450, 4435, 4452
16011, 4435, 4452, 4436, 4451
16012, 4435, 4450, 4495, 4270
16013, 4246, 4248, 4387, 4488
16014, 4243, 4387, 4282, 4347
16015, 4243, 4398, 4246, 4387
16016, 4243, 4247, 4286, 4248
16017, 4283, 4387, 4488,  920
16018, 4281, 4446, 2300, 4247
16019, 4282,  920, 4283,  913
16020, 4248, 2301, 4247, 2300
16021, 4439,  916, 4437,  917
16022, 4410, 4384, 4379, 4380
16023, 4379, 4381, 4295,  909
16024, 4379, 4296, 4382, 4380
16025, 4287, 4293, 4468, 4291
16026, 4287, 4263, 4274, 4290
16027, 4292, 4384, 4296, 4379
16028, 4437, 4420, 4263, 4273
16029, 4292, 4350,  907,  900
16030, 4298, 4304, 4299, 2249
16031, 4345, 4343, 4409, 4386
16032, 4287, 4293, 4292, 4349
16033, 4422, 4423, 2184, 4492
16034, 4342, 4341, 4346, 4340
16035, 4342, 4345, 4259, 4340
16036, 4259, 4340, 4345, 4409
16037, 4345,  924, 4409, 4340
16038, 4345, 4409,  924,  925
16039, 4292, 4297, 4296, 4411
16040, 4294, 4295, 2363,  901
16041, 4481, 4350,  165,  907
16042, 4349, 2219, 4293, 2214
16043, 4327, 4350, 4294,  900
16044, 2348, 2352, 4349, 4411
16045, 4327, 4349, 4350, 2215
16046, 4294, 4297, 2374, 2363
16047, 4471, 4430, 4366, 4463
16048, 4442, 4393, 4316, 2127
16049, 4394, 4440, 2132, 4442
16050, 4268, 4462, 2123, 2118
16051, 4478, 4415, 2248, 2247
16052, 4470, 4471, 4265, 4315
16053, 4471, 2128, 4464, 4470
16054, 4442, 4393, 2127, 2132
16055, 4299, 2248, 2249,  442
16056, 4471, 2123, 4462, 2124
16057, 4442, 4470, 2128, 2127
16058, 4443, 2220,  488,  489
16059,  488, 4443, 4349, 2220
16060, 4491, 2234, 2239, 2233
16061, 4428, 2209, 4383, 2196
16062, 4443, 4426, 2224, 2225
16063, 4289, 4383, 4422, 4426
16064, 4411, 4383, 2209, 2208
16065, 4288, 2218, 4468, 4293
16066, 4287, 4263, 4384, 4438
16067, 4290, 4384, 2182, 2195
16068, 4300, 2248, 2243, 2249
16069, 4492, 4279, 4275, 2170
16070, 4422, 4492, 2184, 2183
16071, 4489, 4288, 4279, 4427
16072, 4290, 4427, 2182, 4279
16073, 4294, 4295, 4297, 2363
16074, 4295, 4381, 2363,  902
16075, 4292, 4379, 4438, 4384
16076, 4296, 4380, 4379, 4384
16077, 4295, 4381,  902,  909
16078, 4490, 4493, 4446, 4332
16079, 4332, 4436, 4490, 4493
16080, 4434, 4490, 4436, 4435
16081, 4434, 4490, 2309, 2357
16082, 4452, 4490, 4446, 2305
16083, 4452, 4490, 2305, 2310
16084, 4452, 4270, 2310, 4450
16085, 4490, 4448, 2304, 2357
16086, 4335, 4455, 4338, 2321
16087, 4338, 4395, 2322, 4455
16088, 4311, 4336, 4338, 4334
16089, 4337, 4338, 2326, 4365
16090, 4495, 4456, 4335, 4450
16091, 4495, 4335, 2315, 4450
16092, 4342, 4259, 2154, 4341
16093, 4235, 2336,  479, 2344
16094, 4235, 4368, 2201, 2336
16095, 4235, 4239, 4240, 4233
16096, 4233, 4240, 4365, 4239
16097, 4233, 4240, 4235, 4378
16098, 4235, 2364, 4378, 4368
16099, 4235, 2364, 4368, 2336
16100, 4443, 2225, 2224, 2219
16101, 4296, 4290, 2195, 4384
16102, 2376, 4426, 4443, 2225
16103, 2338, 4428, 4443, 2376
16104, 4426, 4424, 2224, 2229
16105, 4428, 4383, 4443, 4426
16106, 4428, 2334, 4352, 2376
16107, 4371, 4372, 4374, 2272
16108, 4401, 4432, 4374, 4373
16109, 4401, 4433, 2163, 4432
16110, 4372,  504, 2328, 2323
16111, 4371, 2272, 4374, 2284
16112, 4390, 2284, 2253, 2261
16113, 4353, 4425, 2185, 2197
16114, 4353, 4356, 4491, 2234
16115, 4491, 4309, 2238, 2239
16116, 4353, 2185, 4308, 2198
16117, 4266, 2172, 4425, 4309
16118, 4407, 4309, 4425, 2172
16119, 4303, 4306, 4304, 2114
16120, 4410, 4263, 4438, 4384
16121, 4290, 4384, 4263, 2182
16122, 4410, 4379, 4384, 4438
16123, 4437, 4260, 4273, 4409
16124, 4479, 4273, 4385, 2181
16125, 4305, 4363, 4462, 2119
16126, 4307, 4396, 4301, 4308
16127, 4471, 4430, 4265, 4494
16128, 4315, 4269, 4470, 4316
16129, 4471, 2124, 4462, 4363
16130, 4410, 2182, 4263, 4384
16131, 4410, 4273, 4385, 4409
16132,  917, 4439, 4358, 4409
16133, 4296, 4380, 2195, 2208
16134, 2194, 2195, 4410, 4380
16135, 4439, 4358, 4252,  910
16136, 4410, 4385, 2181, 2194
16137, 4338, 4373, 2327, 2322
16138, 4449, 4455, 4480, 4456
16139, 4395, 2318, 4458, 2271
16140, 4371, 4377, 4390, 4373
16141, 4401, 2163, 4433, 2162
16142, 4433, 4334, 4312, 2176
16143, 4401, 4373, 4336, 4432
16144, 4403, 4375, 4336, 4399
16145, 4336, 4433, 4432, 4334
16146, 4432, 4334, 2176, 2177
16147, 4238, 2189, 4239, 2202
16148, 4311, 4335, 4334, 4338
16149, 4433, 2163, 4432, 2176
16150, 4311, 2189, 4238, 4312
16151, 4336, 4337, 4338, 4402
16152, 4429, 4431, 4430, 4363
16153, 4440, 4441, 4366, 4464
16154, 4265, 2187, 4430, 2186
16155, 4366, 4367, 4430, 2187
16156, 4366, 4463, 4430, 4367
16157, 4304, 2249, 2250,  443
16158, 4430, 4431, 4367, 4463
16159, 4449, 4459, 2312, 4453
16160, 4456, 2177, 2164, 2178
16161, 4459, 4457, 2152, 4485
16162, 4459, 4458, 2312, 2313
16163, 4459, 4453, 4484, 2312
16164, 4258, 2275, 4417, 2283
16165, 4456, 2165, 4453, 2178
16166, 4459, 2151, 4458, 2258
16167, 4480, 4458, 4457, 2151
16168, 4457, 2165, 4485, 4453
16169, 4431, 2341, 4367, 4368
16170, 4321, 2135, 4463, 2130
16171, 4238, 4366, 4320, 4312
16172, 4431,  447, 2365, 2130
16173, 4431, 2365,  447, 2358
16174, 4321, 4367, 4431, 4463
16175, 4429,  476,  477, 2337
16176, 4302,  445, 2371, 2120
16177, 4363, 2130,  447, 4431
16178, 4285, 2356,  518,  517
16179, 4281, 4248, 4247, 2300
16180, 4286, 4333, 4332, 4446
16181, 4281, 4285, 2294, 2299
16182, 4285, 4332, 4448, 4446
16183, 4281, 2300, 4446, 2299
16184, 4285, 2367, 4361, 4254
16185,  906,  913,  905, 4284
16186, 4282,  912, 4286, 4253
16187, 4471, 4464, 2129, 4463
16188, 4281, 4247, 4286, 4446
16189, 4447, 4284, 2294,  150
16190, 4447,  906,  148,  905
16191, 4261, 4421, 4278, 4280
16192, 4236, 4286, 4254,  905
16193,  905, 4282,  912, 4286
16194, 4243, 4250, 4245, 4251
16195, 4387, 4488,  927, 4398
16196, 4243, 4251, 4398, 4347
16197, 4246, 2301, 2302, 4247
16198, 4243, 4249, 4286, 4247
16199, 4493, 2178, 4453, 2179
16200, 4493, 2191, 2178, 2192
16201, 4422, 2184, 4425, 2197
16202, 4452, 4493, 4454, 4247
16203, 4352, 4353, 2210, 4426
16204, 4286, 4247, 4249, 4333
16205, 4482, 4332, 4361, 2205
16206, 2204, 2205, 4436, 4482
16207, 4493, 4446, 4333, 4247
16208, 4452, 4446, 4493, 4247
16209, 4399, 4401, 4336, 4400
16210, 4371, 4375, 4373, 2328
16211, 4371, 2273, 4376, 2333
16212, 4404, 4399, 2141, 4376
16213, 4376,  456, 2273, 2290
16214, 4376, 4377, 2136, 2290
16215, 4373, 4377, 4390, 4399
16216, 2273, 2328,  503, 2333
16217, 2136, 4377, 4376, 4399
16218, 4399, 4391, 4394, 4389
16219, 4395, 4458, 2318, 2317
16220, 4410, 4385, 4273, 2181
16221, 4348, 2255, 4280, 2262
16222, 4260, 4339,  931, 2275
16223, 4260,  931, 4340,  924
16224, 4257, 4273, 4259, 2168
16225, 4260, 4409,  924, 4340
16226,  922, 4261, 4417, 4419
16227, 4302,   28,  494,  444
16228,  463, 2157, 2251, 2262
16229, 2267, 4278, 4465, 4421
16230, 4280, 2288, 2262, 2255
16231, 4474, 4277, 4275, 4276
16232, 4474, 2265, 4276, 2221
16233, 4262, 4279, 4275, 4276
16234, 4262, 2156, 4277, 2157
16235, 4472, 2251, 4277, 2286
16236, 4278, 2267, 4276, 2265
16237,  498, 4329,  497, 2236
16238, 2293, 4329,  497,  498
16239, 4476, 2293, 4241, 4329
16240, 4242,  499,  498, 2264
16241, 4242, 4445, 2264, 2263
16242, 4360, 4385, 2194, 2193
16243, 4385, 4409, 4343, 4386
16244, 4259, 4260, 4339, 4340
16245, 4259, 4409, 4345, 4343
16246, 4287, 4292, 4384, 4296
16247, 4343, 4409, 4385, 4479
16248, 4385, 2193, 4360, 2180
16249, 4274, 4291, 4469, 4420
16250, 4256, 2340, 2360, 2342
16251, 4274, 4438, 4291, 4420
16252, 4465, 4469, 4468, 4487
16253, 4465, 2212, 4466, 4487
16254, 4262, 4279, 4274, 4263
16255, 4287, 4274, 4288, 4290
16256, 4345,  918, 4409,  925
16257, 4409, 4386,  917,  918
16258, 4366, 2187, 4430, 4494
16259, 4366, 4367, 2187, 2188
16260, 4440, 4433, 4366, 4441
16261, 4471, 4464, 2128, 2129
16262, 4315, 4441, 4366, 2174
16263, 2174, 4315, 4494, 4366
16264, 4495, 2202, 4239, 2189
16265, 4495, 2202, 4234, 4239
16266, 4435, 4495, 4450, 2190
16267, 4435, 4436, 2204, 2191
16268, 4335, 4232, 2320, 4365
16269, 4436, 2192, 4493, 4332
16270, 4495, 4270, 2355, 2203
16271, 4488, 4398, 4460,  927
16272, 4270, 2343, 2314, 2355
16273, 4387, 4398,  927,  926
16274, 4369, 4244, 4406, 4398
16275, 4246, 2297, 4488, 4460
16276, 4488,  153, 4460, 2297
16277, 4488,  152, 2297, 2296
16278, 4488,  153, 2297,  152
16279, 4421, 2289, 2267, 2288
16280, 4262, 4279, 2169, 2170
16281, 4257, 4262, 2169, 2156
16282, 4474, 4492, 4275, 4418
16283, 4489, 4474, 4275, 4276
16284, 4418, 4474, 4492, 2227
16285, 4489, 4288, 4275, 4279
16286, 4440, 4442, 2133, 2132
16287, 4315, 4470, 4269, 4265
16288, 4419, 4469,  922, 4420
16289, 4394, 4392, 4391, 4441
16290, 4393, 2279, 4316, 2126
16291, 4289, 2218, 2219, 2224
16292, 2342,  483,  482, 2205
16293, 4393, 4317, 4316, 4475
16294, 4429, 2341, 2337,  477
16295, 4394, 4391, 4433, 4441
16296, 4471, 4366, 4430, 4494
16297, 4268, 2117, 4414, 2118
16298, 4430, 4431, 4463, 4363
16299, 4320, 2133, 4440, 4464
16300, 4268, 2122, 4470, 4316
16301, 4367, 2201, 4368, 2341
16302,  160,  929, 4417, 2289
16303, 4485, 2166, 4453, 2165
16304, 4484, 4405, 4245, 4485
16305, 4344, 4405, 2287, 2256
16306, 4454, 4245, 2307, 2302
16307, 4243, 4246, 4248, 4387
16308, 2160, 2161, 2147, 4317
16309, 4369, 4351, 4244, 4460
16310, 4344, 4250, 4245, 4485
16311, 4398, 4460,  927,  934
16312, 4387, 4347,  926,  919
16313, 4346, 4369,  156, 4406
16314, 4398, 4406, 4346, 4251
16315, 4286, 4333, 4446, 4247
16316, 4285, 2299, 4448, 2349
16317, 4285, 4448, 2367, 2349
16318, 4490, 4446, 2304, 4448
16319, 4446, 2304, 4448, 2299
16320, 4281, 4248, 2300, 2295
16321, 4353, 4425, 4356, 4308
16322, 4307, 4308, 2199, 4396
16323, 4291,  915,  907,  914
16324, 4308, 4396, 2198, 2199
16325, 4301, 4356, 4308, 4396
16326, 4271, 4264, 4300, 4306
16327, 4491, 4356, 4425, 4309
16328, 4425, 4308, 4309, 4356
16329, 4429,  476, 4362, 2199
16330, 4292, 4379,  908, 4438
16331, 2289,  929, 4417, 4421
16332, 2265, 4278, 2262, 4277
16333, 4276, 2267, 4278, 4465
16334, 4467,  161,  162,   14
16335, 4467,  928,  161, 2289
16336, 4419,  928, 4421,  929
16337, 4278, 2288, 4421, 2267
16338, 4253, 4386,  918,  911
16339, 4286, 4253, 4236, 4360
16340, 4286, 4285, 4332, 4361
16341, 4358, 4253,  911, 4386
16342, 4450, 2316, 2310, 2311
16343, 4237, 4236, 4256, 2360
16344, 4495, 4234, 4232, 4239
16345, 2203, 4495, 2202, 4234
16346, 2355, 2203,  480, 4234
16347, 2343, 2355, 2203,  480
16348, 4234, 2344,  479,  480
16349, 4234, 4235, 2202,  479
16350, 4408, 4272, 2238, 4309
16351, 4244, 4245, 4344, 4251
16352, 4369, 2276, 4405, 2270
16353, 4369, 4460, 4244, 4398
16354, 4369,  934, 4398,  933
16355, 4351, 4405, 2298, 2270
16356, 2205, 4482, 2335, 4361
16357, 4282,  912, 4253,  919
16358, 4351, 2298, 4460,  154
16359, 4460, 2298,  153,  154
16360, 4460,  153, 2298, 2297
16361, 2257, 4259, 4258, 4339
16362, 4341,  466, 2259, 2257
16363, 4341, 2259,  466, 2154
16364, 4342, 4344, 4251, 4406
16365, 4344, 4251, 4250, 2166
16366, 2166, 4251, 4343, 4344
16367, 4412, 2173, 4266, 2172
16368, 4491, 2238, 4408, 2233
16369, 4407, 2172, 4425, 2184
16370, 4412, 4416, 4477, 4272
16371, 4460,  934,  154,  927
16372, 4412, 4476, 4413, 2159
16373, 4241, 4477, 4407, 4476
16374, 4311, 4239, 4335, 4365
16375, 4238, 4235, 2202, 4239
16376,  479, 4235, 2201, 2336
16377, 4311, 4334, 4239, 2189
16378, 4235, 2336, 2344, 2370
16379, 4257, 4263, 4273, 2169
16380, 4451, 4436, 4493, 4452
16381, 4449, 4456, 4453, 4451
16382, 4452, 2311, 4450, 2310
16383, 4332, 2205, 4236, 4361
16384, 4361, 4482, 2335, 4448
16385, 4249, 4333, 2180, 4360
16386, 4246, 4488, 4387, 4398
16387, 2180, 4385, 4343, 4249
16388, 4286, 4333, 4249, 4360
16389, 4236, 2193, 4255, 2206
16390, 4333, 4360, 2193, 2180
16391, 4408, 4477, 2237, 4272
16392, 4250, 4493, 4333, 4247
16393, 4301, 4308, 4356, 4309
16394, 4362, 4307, 4396, 4364
16395, 4353, 4356, 2234, 2235
16396, 4310, 4311, 4337, 4240
16397, 4232, 4365, 2319, 2320
16398, 4240, 4314, 2330, 4337
16399, 4240, 4378, 2353, 4313
16400, 2326, 4365, 2325, 4337
16401, 4240, 4365, 4337, 2325
16402, 4241, 2159, 2171, 2158
16403, 2265,  500,  501, 2221
16404, 4238, 2188, 4366, 4312
16405, 4292, 4411, 4349, 4294
16406, 4438, 4291, 4420,  915
16407, 4410, 4439, 4437, 4409
16408, 4382, 4379, 4381, 4295
16409, 4287, 4438, 4292, 4291
16410, 4274, 4290, 4263, 4279
16411, 2181, 2182, 4273, 4410
16412, 4481,  907, 4291, 4350
16413, 4481, 2214, 4293, 2213
16414, 4481,  165, 4350, 2214
16415, 4481,  164, 4487,  914
16416, 4359, 4252, 4380, 4358
16417, 2361, 4252, 4381, 4256
16418, 4347, 4346,  925, 4345
16419, 4292, 4294, 4295, 4297
16420, 4295, 4381, 4382, 2363
16421, 4382, 2363, 4381, 2362
16422, 4382, 4295, 4297, 4296
16423, 4358, 4385, 4360, 4386
16424, 4287, 4274, 4291, 4468
16425, 4256, 4252, 4380, 4359
16426, 4249, 4253, 4386, 4347
16427,  919,  918, 4253, 4347
16428, 4345, 4386,  918, 4347
16429, 4255, 4358, 4359, 4360
16430, 4281, 4284, 4285, 4254
16431,  922, 4261,  923,  930
16432, 4380, 4358, 4252, 4439
16433, 4412, 2172, 2159, 2173
16434, 4403, 4319, 2143, 2138
16435, 4404, 4403, 4461, 2142
16436, 4400, 4319, 4403, 2138
16437, 4399, 4389, 2137, 2136
16438, 4461, 2143, 4403, 4319
16439, 4419,  929,  922,  921
16440, 4315, 4392, 4317, 4393
16441, 4393, 4475, 2279, 2278
16442, 4388, 4475, 2278, 2254
16443, 4388, 2277, 2261, 2254
16444, 4392, 4317, 4393, 4475
16445, 4371, 2284, 4390, 4377
16446, 4392, 4475, 2148, 4317
16447, 4392, 4475, 2254, 2148
16448, 4361, 4332, 4286, 4236
16449, 4330,   27,  439, 2111
16450, 4361, 2206, 4256, 2342
16451, 4382, 2362, 4256, 2340
16452, 4382, 2340, 4256, 2207
16453, 4361, 2342, 4256, 2360
16454, 4380, 2207, 4256, 4359
16455, 2138, 2133, 4400, 4370
16456, 4433, 4312, 2175, 2176
16457, 4336, 4402, 4403, 4319
16458,  474, 2146, 2263,   31
16459,  449,  450, 2359, 2140
16460, 4491, 2233, 2239, 2238
16461, 4329, 4477, 2236, 4242
16462, 2231, 2226, 4242, 4418
16463, 4472, 4474, 2286, 4277
16464, 4313,  450,   29, 2145
16465, 4242,  498, 2263, 2264
16466, 4241, 4408, 2232, 4418
16467, 4445,   31, 4473, 2264
16468, 4472, 2264, 4445, 4473
16469, 4486, 2143, 4319, 2144
16470, 4368, 4320, 4321, 4310
16471, 4486, 4461, 2331, 4402
16472, 4337, 2326, 4402, 2331
16473, 4443,  489, 2376, 2225
16474, 4338, 4337, 2326, 4402
16475, 4261, 4280, 4417, 4421
16476, 2193, 4333, 4236, 4360
16477, 4435, 4490, 4436, 4452
16478, 2304, 2349, 2357, 4448
16479, 4276, 2216, 2221, 2265
16480, 4482,  481, 2335, 2357
16481, 4482, 4436, 4448, 4332
16482, 4285, 4448, 4361, 2367
16483, 4490, 4446, 2305, 2304
16484, 4328, 4267, 4331, 4416
16485, 4322, 4268, 4316, 2116
16486, 4264, 4271, 4266, 4305
16487, 4331, 2242, 4415, 2247
16488, 4478, 4444, 4325, 4415
16489, 4331, 4415, 2242, 4416
16490, 4328, 4331, 2241, 4416
16491,  904, 4237, 4252, 2361
16492, 2285, 2292, 4330, 2269
16493, 4258, 2255, 2275, 2283
16494, 4341, 4339, 2257, 2282
16495, 4341,  932, 4346, 4340
16496, 4479, 4409, 4385, 4273
16497, 4341, 2281, 4406, 4346
16498, 4259, 4341, 2257, 2154
16499,  930, 4261,  923, 4260
16500, 4260, 4258, 4417, 4261
16501, 4280, 4258, 4348, 2156
16502, 4260, 4339, 4340,  931
16503,  931, 2282, 2275, 4339
16504, 4408, 2233, 2232, 2227
16505, 4278, 4280, 2288, 2262
16506, 4341, 4340, 4339, 2282
16507, 4238, 4312, 2189, 2188
16508, 4321, 2134, 4463, 2135
16509, 2140, 4321, 4310, 2364
16510, 4238, 4368, 4367, 2201
16511, 4267, 4415, 4331, 4416
16512, 4300, 2243, 4415, 4272
16513, 4322,  461,  460, 2280
16514, 4415, 2242, 4272, 2243
16515, 4478, 2113, 4414, 2112
16516, 4478, 4300, 4415, 4414
16517, 4299, 4414, 4478, 2113
16518, 4331, 4416, 2242, 2241
16519, 4322, 4325, 4268, 2116
16520, 4326, 4329, 2268, 2260
16521, 4489, 2223, 4424, 2228
16522, 4428, 2210, 4352, 2334
16523, 4443, 2376,  489, 2348
16524, 2234, 4426, 2229, 4424
16525, 4352, 4353, 4426, 2235
16526, 4424, 4423, 4422, 4427
16527, 2223, 4424, 4289, 4489
16528, 4422, 4427, 2183, 2196
16529, 4388, 4393, 4475, 4392
16530, 4486, 4461, 4319, 2143
16531, 4461, 4403, 2143, 2142
16532, 4378, 4238, 4368, 4310
16533, 4486, 4337, 4402, 2331
16534, 4440, 4400, 2132, 2133
16535, 4399, 4375, 4404, 4403
16536, 4336, 4400, 4370, 4319
16537, 4336, 4337, 4402, 4319
16538, 4349, 4350, 2215, 2214
16539, 2348,  488, 4443, 4349
16540, 4489, 4289, 4427, 4424
16541, 4481, 4293, 4350, 4291
16542, 4468, 4487, 4481, 2213
16543, 4468, 4291, 4487, 4469
16544, 4411, 4428, 4443, 2338
16545, 4423, 4408, 2227, 2228
16546, 4287, 4274, 4468, 4288
16547, 4288, 4427, 4290, 4279
16548, 4274, 4279, 4288, 4290
16549, 4291,  914, 4469,  915
16550, 4287, 4292, 4438, 4384
16551, 4274, 4465, 4419, 4469
16552, 4287, 4438, 4274, 4263
16553, 4439, 4381,  909,  910
16554, 4427, 4279, 2183, 2182
16555, 4292, 4411, 4287, 4349
16556, 4291, 4469, 4420,  915
16557, 4459, 4484, 2313, 2312
16558, 4480, 4397, 2150, 4374
16559, 4458, 2318, 2258, 2271
16560, 4397, 2271, 4395, 4458
16561, 4449, 2312, 4458, 2317
16562, 4456, 4457, 2165, 2164
16563, 4449, 4456, 4480, 4457
16564, 4242, 2226,  499, 2264
16565, 4376,  456, 2141,  455
16566, 4241, 4408, 4418, 2171
16567, 4477, 2237, 4416, 2236
16568, 4329, 4476, 4326, 4416
16569, 4412, 4267, 4413, 4476
16570, 4355, 4353, 4308, 2198
16571, 4298, 4302, 2350, 4364
16572, 4483, 4459, 4485, 4484
16573, 4301, 2244, 4309, 2239
16574, 2373, 4396, 2351, 4364
16575, 2346, 2345, 2198, 4396
16576,  475, 2346, 2345, 2198
16577, 4353, 4426, 4422, 2210
16578, 4355, 4396, 2346, 2198
16579, 4396, 2368, 2346, 2351
16580, 4301, 4356, 4396, 2240
16581, 4364, 4396, 2351, 4301
16582, 4462, 2118, 4414, 4306
16583, 4414, 4306, 2118, 2113
16584, 4444, 2247, 4331, 4415
16585, 4478, 4414, 4325, 2112
16586, 2376, 4352, 2230,  490
16587, 4299, 4304, 4306, 2114
16588, 4304, 4302,  443, 2250
16589, 4299,  442, 4304, 2114
16590, 4304, 2249,  443,  442
16591, 4465, 4487, 4466, 4469
16592, 4296, 4411, 4383, 4287
16593, 4481, 4291,  914, 4487
16594, 4292,  908, 4295,  901
16595, 4287, 4288, 4468, 4293
16596, 4475, 2252, 4323, 2279
16597, 4469, 4420,  915,  922
16598, 4376,  503, 2333, 2273
16599, 4239, 4335, 4232, 4495
16600, 4310, 4311, 4336, 4337
16601, 4401, 2163, 2162, 2149
16602, 4371, 2333, 4375, 2328
16603, 4371, 2272, 2284, 2273
16604, 4390, 4373, 4374, 4371
16605, 4322, 4267, 4325, 4324
16606, 4391, 4441, 4392, 2162
16607, 4304, 2115, 2114,  442
16608, 4267, 4318, 4326, 4323
16609, 4393, 4475, 4316, 2279
16610, 4393, 4316, 2127, 2126
16611, 2280, 2279, 4322, 4323
16612, 4267, 4414, 4325, 4415
16613, 4382, 4380, 2207, 4256
16614, 4442, 4316, 4393, 4315
16615, 2230, 2376, 2225, 4426
16616, 4489, 4288, 4276, 4275
16617, 4431, 2365, 2358, 2341
16618, 4310, 4370, 2139, 4319
16619, 4430, 4367, 2200, 2187
16620, 4429, 2366, 2337, 2358
16621, 4307, 4396, 4364, 4301
16622, 2173, 4265, 4494, 4315
16623, 4324, 4323, 4326, 2291
16624, 4241, 2293, 4242, 4329
16625, 2229, 2235, 2230, 4426
16626, 4318, 4496, 4317, 2147
16627, 4476, 2146, 4413, 2159
16628, 4476, 2260, 4326, 2146
16629, 4489, 4474, 4492, 4275
16630, 4472, 2264, 4473, 2251
16631, 4474, 4492, 2227, 4489
16632, 4473, 2251,   31,  463
16633, 4428, 2210, 2334, 2209
16634, 4241, 4418, 2158, 2171
16635, 4445, 4473,   31, 2158
16636, 4473, 2157, 2251,  463
16637, 4282, 4253, 4347,  919
16638, 4342, 2154, 4259, 2167
16639, 4398,  926, 4346,  933
16640, 4398, 4251, 4346, 4347
16641, 4342, 4406, 4251, 4346
16642, 4369,  156, 4406, 2276
16643, 4406, 4346, 2281,  156
16644, 4246, 4248, 4488, 2296
16645, 4244, 4251, 4344, 4406
16646, 4342, 4344, 2167, 4343
16647, 4244, 4406, 4344, 4405
16648, 4346, 4340,  932,  925
16649, 4454, 4247, 2301, 2306
16650, 4398, 4346,  926, 4347
16651, 4340, 4341, 4259, 4342
16652, 4345, 4346,  925, 4340
16653, 4342, 4341, 4406, 4346
16654, 4237,  911, 4253,  912
16655, 4249, 4347, 4386, 4343
16656, 4303, 2114, 4304, 2115
16657, 4298, 4303, 4302, 4364
16658, 4302, 4364, 2371, 2350
16659, 4302,  494,   28, 2250
16660, 4302,  443, 2250,   28
16661, 4302, 2350,  494, 2250
16662, 4304,  443, 4302, 2115
16663, 4475, 2148, 4496,  472
16664, 4399, 4390, 4389, 4377
16665, 4388, 2149, 4391, 4392
16666, 4267, 4416, 4476, 4412
16667, 4475, 2278, 2254, 2279
16668, 4271, 4266, 4309, 4272
16669, 4271, 4266, 4308, 4309
16670, 4462, 2119, 4363, 2124
16671, 4298, 4304, 2250, 4302
16672, 4265, 4494, 4430, 2187
16673, 2122, 4268, 2116, 4316
16674, 4363, 2125, 2124, 2119
16675, 2337, 4429,  476, 4362
16676, 4268, 2116, 4325, 2117
16677, 4322, 4323, 4267, 4324
16678, 4426, 4353, 2234, 2235
16679, 4328, 4331, 4330, 2246
16680, 4429, 4307, 4362, 4363
16681, 4396, 2351, 2346, 2345
16682, 4264, 4306, 4462, 4414
16683, 4430, 2200, 2199, 2186
16684, 4271, 4309, 4301, 2244
16685, 4299, 4478, 4300, 2248
16686, 4300, 4415, 2243, 2248
16687, 4303, 2115, 4304, 4302
16688,  460, 2126, 2121, 2279
16689, 4298, 4301, 4303, 4364
16690, 4328, 4324, 4267, 4326
16691, 4241, 4407, 2171, 2159
16692, 2286, 2226,  500, 2221
16693, 4303, 4363, 2120, 4364
16694, 4299, 4306, 4414, 2113
16695, 2115, 2120, 4302, 4303
16696, 4482,  482,  481, 2204
16697, 4466,  163,  162,  928
16698, 4298, 4306, 4299, 4304
16699, 4496, 4326, 4318, 4323
16700, 4232, 4335, 2315, 4495
16701, 4311, 4240, 4365, 4337
16702, 2140, 4310, 2145, 4313
16703, 2364, 4321, 4310, 4368
16704, 4310, 4370, 4320, 2139
16705, 4378, 4313, 2359, 2353
16706, 4439,  917,  910,  909
16707, 4235, 2370, 4378, 2364
16708, 2146, 2263,   31, 4445
16709, 4492, 4489, 4427, 4423
16710, 2226, 4242, 4418, 4472
16711, 4277, 2265, 2286, 2251
16712, 4274, 4469, 4419, 4420
16713, 4277, 4275, 2157, 4473
16714, 2255, 4348, 4280, 4258
16715, 4421, 4419,  929, 4417
16716, 4252,  904, 2361,  903
16717, 4278, 2288, 4280, 4421
16718, 4278, 2265, 2288, 2267
16719, 4258, 2255,  465, 2257
16720, 4343, 4344, 2167, 2166
16721, 4479, 4385, 2180, 2181
16722, 4440, 4442, 4441, 4464
16723, 4345,  925, 4347,  918
16724, 4345, 4340,  925,  924
16725, 4422, 4423, 4425, 2184
16726, 4242, 2231, 2236,  498
16727, 4251, 4342, 4345, 4343
16728, 4342, 4344, 4341, 2154
16729, 4467, 4466,  162,  928
16730, 4259, 4273, 4260, 4409
16731, 4259, 4341, 4339, 2257
16732, 4341, 4346,  932, 2281
16733, 4258, 2283, 4417, 4280
16734, 4469,  914, 4487,  921
16735, 4417,  929,  930,  922
16736, 4335, 2320, 2315, 2321
16737, 4335, 4338, 2326, 2321
16738, 4276, 2222, 2216, 2217
16739, 4495, 2189, 4239, 4334
16740, 4390, 2149, 2261, 2150
16741, 4441, 4433, 2175, 2162
16742, 4373, 4390, 4401, 4399
16743, 4366, 2175, 4312, 2188
16744, 4320, 4464, 4366, 4463
16745, 2260, 2146, 2263,  474
16746, 4370, 2139, 4319, 2138
16747, 4288, 2218, 4289, 2223
16748, 4465, 4421, 4467, 2267
16749, 4491, 2228, 2234, 2233
16750, 4423, 2184, 4492, 2171
16751, 4489, 2228, 4423, 2227
16752, 4288, 4468, 2218, 2217
16753, 4233, 2370, 2354, 2353
16754, 4275, 4418, 2170, 2157
16755, 4465, 4468, 4288, 2217
16756, 4266, 2185, 2172, 2186
16757, 4484, 2308, 2313, 2307
16758, 4451, 4493, 4453, 4452
16759, 4458, 2318, 2312, 2313
16760, 4291, 4469,  914, 4487
16761, 4265, 4266, 2173, 2186
16762, 4465, 2212, 4468, 2217
16763, 4393, 2127, 2132, 2126
16764, 4444,  440, 2112,  439
16765, 4468, 2213, 4481, 4293
16766, 4329, 4242,  498, 2293
16767, 4468, 4481, 4291, 4293
16768, 4477, 2236, 2231, 2237
16769, 4407, 4408, 2184, 4425
16770, 2278, 2126, 2131,  459
16771, 4417, 2289, 2283,  160
16772, 4330, 2111,  462,   27
16773, 2229, 2234, 4424, 2228
16774, 4444, 2112, 2111,  439
16775, 4465, 4419, 4467, 4421
16776, 4487,  164,  921,  914
16777, 4466,  163, 4487, 2212
16778, 4487,  163,  921,  164
16779, 4292, 4438,  908, 4291
16780, 4474, 2221, 2227, 2226
16781, 4422, 2184, 2197, 2183
16782, 4465, 2211, 2216, 2267
16783, 4319, 2143, 2138, 2144
16784, 2155, 4257, 2156, 4258
16785, 4408, 2232, 2233, 2238
16786, 4474, 2221, 4276, 2222
16787, 4288, 2217, 2223, 2222
16788, 4382, 2339, 4297, 2363
16789, 4411, 2374, 2338, 2348
16790, 4400, 2132, 2138, 2137
16791, 4422, 4383, 4427, 2196
16792, 4296, 4297, 4382, 4357
16793, 4439, 4438, 4410, 4437
16794, 2207, 2208, 4380, 4357
16795, 4418, 2157, 4473, 2158
16796,  460, 4322, 2279, 2121
16797, 4329, 2260, 2293, 2268
16798, 4478,  441,  440, 2247
16799, 4328, 4329, 4326, 4416
16800, 4415, 4416, 4272, 2242
16801, 4299, 2114, 2113,  441
16802, 2242, 2237, 4416, 4272
16803, 4470, 2128, 2122, 2123
16804, 4328, 2269,  496,  495
16805, 4381,  902,  909,  910
16806, 4382, 2339, 2340,  484
16807, 4382, 2207, 2339,  484
16808, 4382, 4297, 2339, 4357
16809,  485, 2338, 4357, 2339
16810, 4256, 2206, 4359, 2207
16811, 4256, 2207, 2340, 2206
16812, 4400, 2138, 2132, 2133
16813, 4389, 2131, 2137, 2136
16814, 4381, 4256, 4380, 4382
16815, 4269, 4315, 2173, 2160
16816, 4299,  442,  441, 2248
16817, 4331, 2247, 2241, 2242
16818, 2172, 4309, 4412, 4407
16819, 4301, 4356, 2239, 4309
16820, 4407, 4412, 2159, 4476
16821, 4320, 4464, 2134, 2133
16822, 4362, 2373, 2345, 2337
16823, 2187, 4265, 4494, 2173
16824, 4302,  444, 2115,  443
16825, 4442, 2133, 2127, 2128
16826, 4441, 2161, 2175, 2174
16827, 4416, 2236, 2237, 2242
16828, 4493, 4333, 2192, 2179
16829, 4450, 2315, 2310, 2316
16830, 4250, 4493, 4453, 2179
16831, 4270, 2343,  515, 2314
16832, 4426, 2230, 2229, 2224
16833, 4306, 2119, 2118, 2113
16834, 4449, 4452, 4451, 4453
16835, 4402, 2332, 2331, 2326
16836, 4298, 4300, 4299, 4306
16837, 4486, 2331,  453, 2330
16838, 4238, 2201, 4367, 2188
16839, 4238, 4235, 2201, 2202
16840, 4471, 4363, 4265, 4430
16841, 4486, 4337, 2331, 2330
16842, 4338, 2327, 4402, 2326
16843, 4433, 2176, 2162, 2163
16844, 4433, 2162, 2176, 2175
16845, 2193, 4360, 4359, 2194
16846, 4253,  919,  912,  911
16847, 4243, 4282, 4286, 4249
16848, 4246, 2296, 4488, 2297
16849, 4286, 4361, 4236, 4254
16850, 4344, 2259, 2256, 2287
16851, 2194, 4360, 4359, 4358
16852, 4315, 2173, 4265, 4269
16853, 4386,  918,  911,  910
16854, 4303, 2119, 2114, 2120
16855, 4414, 2118, 2117, 2112
16856, 4306, 2114, 2119, 2113
16857, 4253,  919,  911,  918
16858, 4249, 4333, 4250, 2179
16859, 2340, 2206, 2342, 4256
16860, 4489, 2228, 2222, 2223
16861, 4313, 4310, 2145, 4314
16862, 4240, 4337, 2330, 2325
16863, 4303, 2120, 2114, 2115
16864, 4316, 2121, 2116, 2122
16865, 4240, 2330, 4314, 2329
16866, 4313,   29,  450,  511
16867, 4313, 2145,   29,  451
16868, 4313,  451,  511, 2329
16869, 4378, 4310, 4313, 4240
16870, 4302, 2120, 2115,  445
16871, 2369, 4349, 2352, 4294
16872, 4287, 4411, 4292, 4296
16873, 4243, 4251, 4244, 4398
16874, 4468, 4291, 4481, 4487
16875, 4468, 2213, 4293, 2218
16876, 4481, 2214,  164,  165
16877, 2366,  445,  446, 2120
16878, 4462, 2124, 2123, 2118
16879, 4350,  166,  907,  900
16880, 4350,  165,  907,  166
16881, 4294, 2374, 4411, 2352
16882, 4315, 2174, 2173, 2160
16883, 4302, 2350, 2371,  444
16884, 2120, 4302, 4303, 4364
16885, 4298, 2350, 4302, 2250
16886,  926, 4347, 4346,  925
16887, 4259, 4479, 2167, 2168
16888, 4369, 4398,  934, 4460
16889, 4341, 2281,  932, 2282
16890, 4389,  458, 2131, 2136
16891, 4339, 2257, 2282, 2275
16892, 4322, 2121,  460,  461
16893, 4368, 2365, 2341, 2364
16894, 4431, 4463, 4363, 2130
16895, 4311, 4239, 4238, 2189
16896, 4321, 2364, 2140, 2135
16897, 4266, 2186, 2172, 2173
16898, 4378, 2359, 2364, 2370
16899, 4378, 2364, 2359, 2140
16900, 4266, 4308, 4425, 2185
16901, 2203, 4495, 4234, 2355
16902, 4316, 2126, 2121, 2127
16903, 4370, 2133, 2134, 2139
16904, 4233, 4378, 4235, 2370
16905, 2146, 2260, 4326, 2147
16906, 4328, 4329, 2268, 4326
16907, 4470, 2127, 2122, 2128
16908, 4267, 4324, 4323, 4326
16909, 4388, 4391, 4394, 4393
16910, 2245,  494,  493, 2350
16911, 4464, 2128, 2134, 2133
16912, 4322, 4325, 4267, 4268
16913, 4475, 4496, 4317, 4318
16914, 4322, 2280, 4324, 2292
16915, 2364,  448,  449, 2135
16916, 4363, 2125, 2119, 2120
16917, 4463, 2135, 2134, 2129
16918,  913,  905, 4284, 4282
16919, 4332, 4333, 2205, 2192
16920, 4285, 2356, 2349, 2367
16921, 4493, 4332, 4333, 4446
16922, 4456, 4453, 4451, 2178
16923, 4429,  477, 2199, 2200
16924, 4282,  913,  905,  912
16925, 4283, 4488, 4248, 2296
16926, 4316, 2127, 2121, 2122
16927, 4340,  932,  931, 2282
16928, 4249, 2179, 4343, 2180
16929, 4268, 4470, 2123, 4462
16930, 4475, 4496, 4323, 2252
16931, 4491, 2234, 4356, 2239
16932, 4301, 2245, 2239, 2240
16933, 2237, 4416, 4272, 4477
16934, 4389, 4377, 2290, 2136
16935, 4471, 2124, 2129, 2123
16936, 4330, 4331, 4324, 4325
16937, 4329, 2236, 4416, 2241
16938, 4300, 2243, 2244, 2249
16939, 4298, 4300, 2244, 2249
16940, 2260, 2147,  474,  473
16941, 4272, 2237, 2243, 2242
16942, 4463, 4363, 2130, 2129
16943, 4412, 2173, 2159, 2160
16944, 4272, 4408, 2238, 2237
16945, 4344, 2167, 2153, 2154
16946, 4362, 4364, 2373, 2366
16947, 4442, 2133, 2132, 2127
16948, 4341, 4340, 2282,  932
16949, 4246, 2297, 2302, 2296
16950, 4269, 2160, 4412, 4413
16951,  447, 4363, 2358, 2125
16952, 4484, 2266, 2308, 2303
16953, 4240, 2329, 4313, 2353
16954, 4449, 2317, 2316, 2311
16955, 4245, 2307, 4484, 4453
16956, 4363, 2125, 2130, 2124
16957, 4264, 4300, 4414, 4415
16958, 4317, 2148, 2161, 2147
16959, 4475, 4496, 2148, 4317
16960, 4494, 2187, 2174, 4366
16961, 4318, 4317, 2160, 2147
16962, 2161, 2160, 4315, 4317
16963, 2205, 4333, 4236, 2206
16964, 4368, 2201, 2336,  478
16965, 4310, 2145, 2139, 2140
16966, 2235, 4426, 2229, 2234
16967, 4259, 4479, 2168, 4273
16968, 4284,  906,  913,  151
16969, 4317, 4496, 2148, 2147
16970, 4389, 2137, 2131, 2132
16971, 4340,  931,  932,  924
16972, 4260,  930, 2275,  931
16973, 4341, 2257, 2154,  466
16974, 4257, 4260, 4259, 4273
16975, 4263, 4279, 2182, 2169
16976, 4392, 2148, 2254, 2149
16977, 4409, 4259, 4479, 4343
16978, 2278, 2131,  458,  459
16979, 4256, 2361, 2340, 2362
16980,  903, 4252, 4381, 2361
16981, 2362,  902,  145, 2363
16982, 4247, 2305, 2300, 2306
16983, 4464, 2128, 2129, 2134
16984, 2365,  447,  448, 2130
16985, 4345, 4409,  918, 4386
16986, 4419, 4261, 4417, 4421
16987, 4437,  923,  924,  916
16988, 4343, 4251, 4347, 4345
16989, 4260,  924,  923,  931
16990, 4258, 4339, 4259, 4260
16991, 2155, 2257, 4259, 4258
16992, 4264, 4267, 4415, 4414
16993, 4415, 2248, 2247, 2242
16994, 2354,  512,  513, 2324
16995, 4233, 4232, 4239, 4365
16996, 2177, 2191, 2178, 4451
16997, 2134, 4320, 2139, 2140
16998, 2351, 4364, 2350, 2373
16999, 4442, 4441, 4315, 4392
17000, 4494, 2173, 2174, 2187
17001, 2129, 4363, 4471, 4463
17002, 4326, 2260,  473, 2147
17003, 4370, 4310, 4312, 4336
17004, 4413, 2160, 2146, 2147
17005, 4478, 4444, 4415, 2247
17006, 4392, 2148, 2162, 2161
17007, 4241, 2232, 4408, 4477
17008, 4241, 4329, 4242, 4477
17009, 2358,  447, 2125,  446
17010, 4401, 4374, 2163, 2150
17011, 4322, 4316, 2121, 2116
17012, 4410, 2195, 2194, 2181
17013,  471, 2149, 2254,  472
17014, 4376,  457, 2136, 2141
17015, 4399, 2142, 4404, 2141
17016, 4389, 2136,  457,  458
17017, 4259, 4479, 4343, 2167
17018, 4237,  912,  904,  911
17019, 4249, 4343, 2179, 4251
17020, 4301, 2245, 2351, 2350
17021, 4435, 2191, 2190, 4451
17022, 4391, 4441, 2162, 4433
17023, 4456, 4451, 2190, 2177
17024, 4344, 4406, 4341, 2259
17025, 4320, 4464, 4463, 2134
17026,  932,  933,  156, 4346
17027, 4259, 2168, 2167, 2154
17028,  932, 2282,  157,  931
17029, 4406, 2281, 2287, 2276
17030, 4475, 2148,  472, 2254
17031, 4326, 4496,  473, 2252
17032, 4340,  924,  932,  925
17033, 2288, 2265, 4278, 2262
17034, 4310, 2145, 2144, 2139
17035, 4321, 2135, 2140, 2134
17036, 2364, 2365,  448, 2135
17037, 4417,  159,  930,  929
17038, 4468, 4487, 2213, 2212
17039, 4437,  924,  917,  916
17040, 4421, 2289,  929,  928
17041,  929, 2289,  160,  928
17042, 4240, 2324, 2325, 2330
17043, 4495, 2189, 2203, 2202
17044, 4469,  921,  922,  914
17045, 4283, 4248, 4488, 4387
17046, 4387,  927, 4488,  920
17047, 4283,  913,  920,  152
17048, 4347,  926,  919,  918
17049, 4343, 2180, 2166, 2167
17050, 4357, 4411, 2208, 4296
17051, 4260,  923,  930,  931
17052, 4282,  919,  920,  912
17053,  905, 4237,  148, 2372
17054, 4249, 4343, 4251, 4347
17055, 4409,  924,  925,  917
17056, 4387,  919,  926,  927
17057, 4319, 2144, 2138, 2139
17058, 4404, 2142,  454, 2141
17059, 4274, 4276, 4288, 4279
17060, 4479, 4273, 2181, 2168
17061, 4399, 2141, 2136, 2142
17062,  932,  157, 2281,  156
17063, 4377, 2277, 2284, 4390
17064, 4361, 2206, 2342, 2205
17065,  158,  931, 2282, 2275
17066, 4486, 4337, 4319, 4402
17067, 4420,  915,  923,  916
17068, 4337, 2325, 2331, 2330
17069, 4292, 4350, 4349, 4293
17070, 4314, 2145,  451, 2144
17071, 4420,  915,  922,  923
17072, 4259, 4409, 4260, 4340
17073,  928,  160,  161, 2289
17074, 4281, 4286, 4282, 4284
17075, 4406, 2276,  156, 2281
17076, 4237,  905,  904,  912
17077,  918, 4253, 4347, 4386
17078, 4382, 4381, 4256, 2362
17079, 4281, 4283, 4248, 2295
17080, 4490, 4332, 4446, 4448
17081, 4252,  910,  911,  903
17082, 4358, 4410, 4409, 4439
17083, 4421, 2283, 2289, 2288
17084,  930, 2275,  158,  159
17085, 4486, 2144,  452, 2143
17086,  931,  157,  158, 2282
17087,  473, 2148,  472, 4496
17088, 4404,  455, 2141,  454
17089, 4381,  902,  910,  903
17090, 4380, 2208, 2194, 2195
17091, 2252,  472, 4496,  473
17092, 4461,  454, 2142,  453
17093, 4379,  909, 4295,  908
17094, 4254, 2356, 2367, 2372
17095, 4243, 4245, 4250, 4247
17096, 2342, 2205, 2335, 4361
17097, 4486,  453,  452, 2330
17098, 4447, 2372,  905,  148
17099, 4447, 2356, 2372,  149
17100, 4447, 2372, 4254,  905
17101, 4283, 2296,  151,  152
17102, 4282,  920,  913,  912
17103, 4237,  905,  147,  904
17104,  146,  903, 2361,  904
17105, 4252,  911,  904,  903
17106, 4314,  452,  451, 2329
17107, 4314,  452, 2329, 2330
17108, 4343, 4251, 2166, 2179
17109, 4457, 2151, 2165, 2164
17110, 4493, 4332, 2192, 4333
17111, 4438,  916,  908,  915
17112, 4437,  916, 4420,  923
17113, 4363, 4364, 2366, 2120
17114, 4313,  451,   29,  511
17115, 4475, 2279, 2254, 2252
17116, 4481,  914, 4291,  907
17117, 4495, 4239, 4335, 4334
17118, 4493, 4451, 2178, 2191
17119, 4487, 2213, 2212,  163
17120, 4452, 4247, 2306, 2305
17121, 4327,  487,  166,   11
17122, 4292,  908,  900,  907
17123,  903,  902,  145, 2362
17124, 4481, 2213, 4487,  164
17125, 4417,  160, 2283,  159
17126, 4320, 4367, 4321, 4463
17127, 4322, 2121,  461, 2116
17128, 4242, 2263,  498, 2293
17129, 2147, 2148,  473, 4496
17130, 4265, 2173, 2187, 2186
17131, 4305, 4265, 4462, 4363
17132,  910, 4439, 4358,  917
17133, 4325, 2117, 2111, 2112
17134, 4325, 2111, 2117, 2116
17135, 2260, 2293, 4476, 4329
17136,  466, 2154, 2259,  467
17137, 4477, 2237, 2231, 2232
17138, 4478, 2113, 2112,  440
17139,  145, 2363,  902,  144
17140, 2155, 4258, 2156,  465
17141, 4294,  900,  901, 2375
17142, 4242, 2231,  498,  499
17143, 4445,   31, 2146, 2158
17144,  901, 2375,  144, 2363
17145, 4358, 4385, 4386, 4409
17146, 4349, 2352,  488,  487
17147,  904,  146,  147, 2361
17148, 2191, 4451, 4436, 4493
17149, 4312, 4334, 2189, 2176
17150, 4281, 2299, 2294, 2300
17151, 4483, 2153, 2152,  468
17152, 4475,  472, 4496, 2252
17153, 4369, 4351, 4460,  934
17154, 4442, 2128, 4464, 2133
17155, 4284, 2295, 2294,  150
17156, 4298, 2244, 2250, 2249
17157, 4299, 4300, 2249, 2248
17158, 4376, 2141,  456,  457
17159, 4403, 2143, 2142, 2137
17160, 4399, 2142, 2136, 2137
17161, 4388, 2149, 2254, 2261
17162, 4456, 2178, 4451, 2177
17163, 4321, 4368, 2364, 2365
17164, 4429, 2200, 2341,  477
17165, 4331, 2246, 2241, 2247
17166, 2135, 2365,  448, 2130
17167, 4434, 2357, 2309,  515
17168, 4267, 4415, 4416, 4272
17169, 4393, 2132, 2131, 2126
17170, 4370, 2138, 2133, 2139
17171, 2261, 2149, 2254,  471
17172, 4434, 2343,  515, 4270
17173, 4466,  928,  921,  163
17174, 4482, 2357, 4434,  481
17175, 4294, 2375, 2363, 2374
17176, 4327, 2375, 4294, 2369
17177, 4376,  455, 2333,   30
17178, 4381, 2362, 2363,  902
17179, 4256, 2340, 2361, 2360
17180,  901, 2375,  143,  144
17181, 4293, 2219, 2218, 2213
17182, 2261,  470, 2150,  471
17183, 4327,  900, 2375,  143
17184, 4327, 4349, 2215,  487
17185, 4454, 2302, 2307, 2301
17186, 4240, 2329, 4314, 4313
17187, 4296, 2195, 4383, 2208
17188, 4411, 4294, 4297, 2374
17189, 4428, 2376, 2338, 2334
17190, 4428, 4411, 4443, 4383
17191, 4376, 4399, 2141, 2136
17192, 4443, 4383, 4289, 4426
17193, 2334, 2209, 2338, 4428
17194,  490, 2376, 2225, 2230
17195, 4397, 2151,  470,  469
17196, 4383, 4427, 4290, 4289
17197, 4407, 4412, 4476, 4477
17198, 4441, 2162, 2175, 2161
17199, 4396, 4356, 4354, 2240
17200, 4396, 4354, 4356, 4355
17201, 4495, 4335, 4456, 4334
17202, 4354, 4396, 2368, 2346
17203, 4482, 4434, 2357, 4448
17204, 4426, 2235, 2230, 4352
17205, 4336, 4338, 4375, 4402
17206, 4355, 2346, 2347,   32
17207, 4248, 2295, 2296, 2301
17208, 4480, 2164, 2150, 2151
17209, 4235, 2344, 4234, 4233
17210, 4341, 4406, 2281, 2259
17211, 4395, 2317, 2323, 2322
17212, 4368, 2336, 2364, 2341
17213, 4235, 2336, 2370, 2364
17214, 2357, 2309,  516, 2304
17215, 4392, 2148, 2149, 2162
17216, 2364, 2359, 2140,  449
17217, 2258,  468, 2152,  469
17218, 4442, 4393, 4392, 4315
17219, 4268, 2118, 2123, 2117
17220, 4307, 4308, 2186, 2199
17221, 4396, 2199, 2345, 2198
17222, 4301, 2240, 2351, 2245
17223, 2350, 2245, 2351,  493
17224, 2368, 2240,  492, 2351
17225, 4355, 2347, 2334,   32
17226, 2368, 2235, 4352,  491
17227, 4355, 4353, 2198, 2210
17228, 2152,  469, 2151, 2258
17229, 4485, 2166, 2152, 2153
17230, 4352, 2334, 2347,  490
17231,  487, 4349, 2352, 2369
17232, 4493, 2178, 2179, 2192
17233, 4349, 2352, 2348,  488
17234, 4344, 2256, 2153, 4485
17235, 4457, 2151, 2152, 2165
17236, 4483,  468, 2274, 2256
17237, 4295,  901,  909,  902
17238, 4443, 2225, 2220,  489
17239, 4465, 4487, 4468, 2212
17240, 4232, 2315, 2320, 2314
17241, 4294, 2352, 2375, 2374
17242, 4327,  900,   11,  166
17243, 2362,  903, 2361,  146
17244, 4258, 2156,  465, 4348
17245, 4406, 2287, 2281, 2259
17246, 4382, 2339, 2362, 2340
17247, 4382, 4380, 4357, 2207
17248, 4483,  467,  468, 2256
17249, 4452, 4446, 4247, 2305
17250, 4452, 4454, 2311, 2306
17251,  467, 2154, 2259, 2153
17252, 4428, 4411, 2209, 2338
17253, 4466, 2211,  162, 2212
17254, 2363, 4295, 4297, 4382
17255, 4327, 2215, 4350,  166
17256, 2257, 2154,  466, 2155
17257, 4292, 4291,  907, 4350
17258, 4291,  915,  908,  907
17259,  145,  146,  903, 2362
17260, 4417,  159, 2283, 2275
17261, 4382, 2362, 2339, 2363
17262, 4381, 2362,  902,  903
17263, 4288, 4276, 2217, 2222
17264, 4292,  901, 4294,  900
17265, 4468, 2212, 2213, 2218
17266, 4438,  915, 4420,  916
17267,  465, 2155, 2257,  466
17268, 4237, 4255, 4236, 4253
17269, 4427, 4279, 4492, 2183
17270, 4237, 2361,  147, 2360
17271, 4348, 4280, 2156, 2262
17272, 4350, 2215, 2214,  165
17273, 4348,  464, 2262, 2156
17274, 4465, 4466, 4419, 4469
17275, 4292,  907, 4291,  908
17276, 2262,  464, 2157, 2156
17277, 4418, 2231, 2226, 2232
17278, 2205, 2206, 2342,  483
17279, 4467,   14,  162, 2211
17280, 4259, 2168, 2154, 2155
17281, 4405, 2276, 2287, 2270
17282, 4237,  905,  148,  147
17283, 4255, 4359, 2206, 2193
17284, 2207, 2340, 2206,  484
17285, 4447,  518, 2356,  149
17286, 2286,  500, 2265, 2221
17287, 4447,  149,  906,  150
17288,  463, 2262,  464, 2157
17289, 4262, 2156, 2157, 2170
17290, 4492, 4418, 2171, 2170
17291, 4361, 2206, 4236, 4256
17292, 4473,  463, 2158, 2157
17293, 4286, 4285, 4361, 4254
17294, 4302,  445, 2115,  444
17295, 4304, 2115,  442,  443
17296, 4285, 2349,  517, 2299
17297, 4447,  518,   12, 2294
17298,  446, 2120, 2125, 2366
17299, 4241, 2146, 2159, 2158
17300, 4285, 2294, 2299,  518
17301, 4236, 4361, 2360, 4254
17302, 4315, 2174, 2160, 2161
17303, 4407, 2171, 2159, 2172
17304, 4448, 2349, 2299, 2304
17305, 4362, 2366, 2373, 2337
17306, 4272, 2238, 4309, 2243
17307, 4489, 2227, 4474, 2222
17308, 4448, 2367, 2349, 2335
17309, 4491, 2239, 4356, 4309
17310,  516, 2304, 2349, 2357
17311, 4448, 4332, 4361, 4482
17312, 4356, 2240, 2234, 2235
17313, 4400, 2138, 4370, 4319
17314, 4236, 2360, 4361, 4256
17315, 4436, 2191, 4493, 2192
17316, 4482, 4434, 4436, 2204
17317, 4316, 2279, 2121, 2126
17318, 4325, 2112, 4414, 2117
17319, 4234,  480, 2202, 2203
17320, 4392, 2161, 4317, 2148
17321, 4365, 4338, 2326, 4335
17322, 4378, 4313, 2140, 2359
17323, 4268, 2123, 2122, 2117
17324, 4496, 4323, 4318, 4475
17325,  482, 2342, 2205, 2335
17326, 4234, 4232, 4233, 2355
17327, 2358, 4429, 2341, 2337
17328, 4429, 4430, 2200, 2199
17329, 4495, 4334, 2190, 2189
17330, 4335, 2326, 2320, 2321
17331, 4244, 2303, 4405, 4245
17332, 2364,  449, 2140, 2135
17333, 4401, 2150, 2163, 2149
17334, 2314, 4270, 2309,  515
17335, 2349, 2304,  517, 2299
17336, 4480, 2164, 2163, 2150
17337,  513, 2319, 2355, 2354
17338, 4449, 4458, 4480, 4455
17339, 4397,  469, 2258, 2151
17340, 4480, 4432, 2163, 2164
17341, 2343,  514,  515, 2314
17342, 2290, 4377, 2277, 2284
17343, 2157, 2251, 2262, 4277
17344, 4400, 2138, 4403, 2137
17345, 4244, 2298, 2303, 2297
17346, 4250, 4251, 2179, 2166
17347, 4375, 2327, 4338, 4373
17348, 4483, 4485, 4459, 2152
17349, 4235, 4378, 4238, 4368
17350, 2354, 2324, 2353,  512
17351, 4451, 2191, 2190, 2177
17352, 4495, 4270, 4450, 2315
17353, 4338, 2321, 2327, 2326
17354, 4303, 4305, 4306, 2119
17355, 4344, 2259, 2154, 2153
17356, 4240, 2353, 2354, 2324
17357, 4240, 2353, 2324, 2329
17358, 4378, 2370, 2353, 2359
17359, 4367, 2187, 2201, 2200
17360, 4339, 4340,  931, 2282
17361,  479, 2344, 4234, 4235
17362, 4365, 4239, 4335, 4232
17363, 4485, 2165, 2152, 2166
17364, 2354, 2324,  513, 2319
17365, 4344, 2167, 2166, 2153
17366, 4313, 2353,  450, 2359
17367, 2355, 2319,  514, 2314
17368, 4281, 4286, 4285, 4446
17369, 4463, 2129, 2130, 2135
17370, 2353,  511,  512, 2329
17371, 4240, 2330, 2329, 2324
17372, 2308, 2274,  507,  508
17373, 4431, 4363, 2358,  447
17374, 4363, 2358, 2125, 2366
17375, 4273, 2168, 2169, 2182
17376, 4279, 2183, 2169, 2170
17377, 4362, 2345,  476, 2337
17378, 4412, 4476, 4477, 4416
17379, 4492, 2183, 2170, 2184
17380, 4418, 2170, 2157, 2171
17381, 4279, 2183, 2182, 2169
17382, 2358, 2366,  446, 2125
17383, 2341,  478, 2200, 2201
17384, 4492, 2170, 2171, 2184
17385, 2200, 4367, 4429, 2341
17386, 4241, 4476, 4407, 2159
17387, 4407, 2184, 2171, 2172
17388, 4303, 4363, 2119, 2120
17389, 4364, 2371, 2350, 2373
17390, 4302, 2371, 4364, 2120
17391, 4272, 2243, 2237, 2238
17392, 4411, 4297, 2338, 2374
17393, 4266, 4271, 4308, 4307
17394, 4364, 2366, 2371, 2373
17395, 2371,  445, 2366, 2120
17396, 2125, 2130,  447, 4363
17397, 4471, 4265, 4315, 4494
17398, 4431, 2358, 4429, 2341
17399, 4252, 4381,  910,  903
17400, 4490, 2357, 2304, 2309
17401, 4237,  904, 4252,  911
17402, 4405, 2270, 2303, 2298
17403, 4472, 2226, 4242, 2264
17404, 4368,  478, 2341, 2201
17405, 4394, 4442, 2132, 4393
17406, 4308, 2185, 2186, 2199
17407, 4394, 4440, 4442, 4441
17408, 4233, 2354, 2370, 2344
17409, 4429,  477,  476, 2199
17410, 4390, 2277, 2284, 2261
17411, 4307, 2186, 4430, 2199
17412, 2351,  493, 2240,  492
17413, 4301, 4356, 2240, 2239
17414, 4312, 2189, 2188, 2175
17415, 4313,  450, 2145, 2140
17416, 4302,  494, 2350,  444
17417, 4278, 4257, 4280, 2156
17418, 4355, 4308, 4396, 2198
17419, 2124, 2129, 4363, 4471
17420, 4456, 4450, 2190, 4451
17421, 4307, 4265, 2186, 4266
17422, 2351, 2240,  493, 2245
17423, 4396, 2351, 2345, 2373
17424, 4404, 2332, 2333,  455
17425, 4459, 2258, 2152, 2151
17426, 4432, 2177, 2163, 2164
17427, 4471, 4363, 4430, 4463
17428, 4367, 4429, 2341, 4431
17429, 4232, 2320, 2319, 2314
17430, 4320, 4440, 2133, 4370
17431, 4375, 2327, 2333, 2332
17432, 4461, 4402, 2332, 2331
17433, 4461, 2331, 2332,  454
17434, 4337, 2331, 2325, 2326
17435, 4461, 4319, 4403, 4402
17436, 4453, 2165, 2166, 2179
17437, 4343, 2179, 2166, 2180
17438, 4238, 2202, 2188, 2189
17439, 4410, 4384, 2195, 2182
17440, 4313, 2353, 2329,  511
17441, 2353,  512, 2324, 2329
17442, 4479, 2181, 2167, 2168
17443, 4313,  511,  450, 2353
17444, 4474, 2222, 2227, 2221
17445, 2333, 4371, 2273, 2328
17446, 4469,  922,  915,  914
17447, 4376, 2290, 2136,  457
17448, 4342, 4344, 2154, 2167
17449, 2318, 2271, 4395, 2323
17450, 4424, 4425, 4353, 4422
17451, 4290, 2196, 2195, 2182
17452, 4364, 2371, 2366, 2120
17453, 4363, 2124, 2130, 2129
17454, 4482, 2205,  482, 2204
17455, 4471, 4463, 4366, 4464
17456, 4462, 2124, 2118, 2119
17457, 4375, 2327, 2328, 2333
17458, 4432, 2177, 2176, 2163
17459, 4373, 2328, 2327, 2322
17460, 4424, 2224, 2229, 2223
17461, 4335, 4365, 2320, 2325
17462, 4483, 4459, 2258, 2152
17463, 4461, 2143,  453, 2142
17464, 2188, 2175, 2174, 4366
17465, 4355, 2210, 2198,  475
17466, 4315, 2173, 2174, 4494
17467, 4486, 4337, 4314, 4319
17468, 4356, 2240, 2239, 2234
17469, 4310, 4240, 4337, 4314
17470, 4380, 2194, 2208, 2207
17471, 4238, 2202, 2201, 2188
17472, 4363, 2120, 2366, 2125
17473, 4365, 2319, 2320, 2325
17474, 4430, 2200, 2186, 2187
17475, 4362,  476, 2345, 2199
17476, 4314, 4313,  451, 2145
17477, 4373, 2328, 2322, 2323
17478, 2187, 2174, 4366, 2188
17479, 4312, 2176, 2189, 2175
17480, 4372, 2328, 4373, 2323
17481, 4232, 2354, 2319, 2324
17482, 4372, 2271, 2253, 2272
17483, 4388, 2261, 4391, 2149
17484, 4449, 2316, 4450, 2311
17485, 4394, 4393, 4391, 4392
17486, 4377, 2284, 2290, 2273
17487, 4395, 2322, 4455, 2317
17488, 2323, 2318, 2271,  505
17489, 4455, 2322, 2316, 2317
17490, 4375, 2333, 4404, 2332
17491, 4338, 2321, 2322, 2327
17492, 4449, 4450, 4452, 2311
17493, 4365, 2324, 2319, 2325
17494, 4395, 2323, 2317, 2318
17495, 2355, 2319,  513,  514
17496, 4335, 4365, 2325, 2326
17497, 4246, 4248, 2301, 4247
17498, 4235, 4234, 4239, 4233
17499, 4456, 4432, 2164, 2177
17500, 2190, 4456, 4334, 4495
17501, 4334, 2177, 2190, 2176
17502, 4334, 2176, 2190, 2189
17503, 4436, 4332, 2205, 2192
17504, 4371, 2272, 2273,  504
17505, 4455, 2321, 2316, 2322
17506, 4435, 2190, 2191, 2204
17507, 4371, 4375, 2333, 4376
17508,  932, 2281,  157, 2282
17509, 4385, 2181, 2194, 2180
17510, 4458, 2318, 2313, 2258
17511, 4395, 4373, 2322, 2323
17512, 2318, 2313, 2258,  506
17513, 4372,  504,  505, 2272
17514,  509, 2270, 2303, 2266
17515, 4338, 4455, 4334, 4432
17516, 4449, 2311, 2312, 2317
17517,  483, 2340, 2206, 2342
17518, 4411, 2209, 2338, 2208
17519,  485, 2207,  484, 2339
17520, 4310, 4319, 2139, 2144
17521, 4456, 4457, 4453, 2165
17522, 4353, 2198, 2197, 2185
17523, 4454, 4247, 4245, 2302
17524, 4232, 2319, 2355, 2314
17525, 2320, 4232, 4335, 2315
17526, 4290, 2196, 2182, 2183
17527, 4270, 2315, 2309, 2310
17528, 4443, 2220, 2225, 2219
17529, 4459, 4457, 4485, 4453
17530, 4459, 4458, 2313, 2258
17531, 4484, 2307, 2313, 2312
17532, 4367, 2341, 2200, 2201
17533, 2352, 2374, 4411, 2348
17534, 4456, 4449, 4450, 4451
17535, 4355,   32, 2210,  475
17536, 4353, 2198, 2210, 2197
17537, 4484, 2313, 2308, 2274
17538,  450, 2359, 2140, 4313
17539, 2313, 2308, 2274,  507
17540, 2318,  506, 2258, 2271
17541, 4320, 4321, 2140, 2134
17542, 4452, 4247, 4454, 2306
17543, 2318, 2271,  505,  506
17544, 4452, 2305, 2311, 2310
17545, 4367, 2201, 2187, 2188
17546, 4434, 4490, 2357, 4448
17547, 4353, 4491, 4424, 2234
17548, 4308, 2199, 2198, 2185
17549, 2357,  515,  516, 2309
17550, 4232, 4270, 2355, 4495
17551, 4464, 4315, 4366, 4471
17552, 4452, 4493, 4446, 4490
17553, 2177, 2190, 4456, 4334
17554, 4238, 4367, 4366, 2188
17555, 2341,  478,  477, 2200
17556, 2343, 2314, 2355,  514
17557, 4399, 4336, 4403, 4400
17558, 4453, 2307, 4484, 2312
17559, 4453, 4457, 4449, 4459
17560, 4348,  464, 2255, 2262
17561, 4483, 2153, 4485, 2152
17562, 4368, 2336, 2341,  478
17563, 4240, 4365, 2325, 2324
17564, 4372, 2272,  505, 2271
17565, 4361, 2342, 2360, 2367
17566, 4320, 4463, 4321, 2134
17567, 4245, 2307, 2302, 2308
17568, 4495, 2189, 2190, 2203
17569, 2308,  508, 2303, 2266
17570, 4375, 4402, 2327, 2332
17571, 4453, 2178, 2165, 2179
17572, 4454, 2306, 2312, 2311
17573, 4282, 4283, 4284,  913
17574, 2206, 4333, 4236, 2193
17575, 2204,  481, 4434, 2203
17576, 4361, 2342, 2367, 2335
17577,  507, 2274, 2313, 2258
17578, 4454, 2307, 2306, 2301
17579,  933, 4346, 4369,  156
17580, 4479, 4385, 4343, 2180
17581, 4490, 2310, 2304, 2305
17582, 4435, 4270, 4495, 2203
17583, 4405, 2270, 2287, 2266
17584, 4436, 2191, 2205, 2204
17585, 4459, 2313, 4484, 2274
17586, 4333, 2206, 2205, 2192
17587, 4247, 2301, 2306, 2300
17588, 4270, 2315, 2314, 2309
17589, 4446, 2299, 2305, 2304
17590, 4310, 4378, 4313, 2140
17591, 4386,  918,  910,  917
17592, 4344, 4485, 2153, 2166
17593, 2220, 2219, 4443, 4349
17594, 4333, 2206, 2192, 2193
17595, 4457, 2152, 4485, 2165
17596, 4244, 2303, 2302, 2297
17597, 4387, 4398,  926, 4347
17598, 2303,  509, 2298, 2270
17599, 4244, 4246, 4398, 4460
17600, 4246, 4248, 2296, 2301
17601, 4428, 2210, 2209, 2196
17602, 4484, 2303, 4405, 2266
17603, 4245, 2302, 2303, 2308
17604, 4278, 2262, 4277, 2156
17605, 2334,   32, 2209, 2210
17606, 4484, 2266, 2256, 2274
17607, 4383, 2208, 2195, 2209
17608, 2313,  506,  507, 2258
17609, 4459, 4457, 2151, 2152
17610, 4333, 2180, 2193, 2179
17611, 4333, 2193, 2192, 2179
17612, 2345, 2199,  476, 2198
17613, 4292, 4294, 4349, 4350
17614, 4490, 2304, 2310, 2309
17615, 4489, 4288, 4427, 4289
17616, 2178, 4451, 4493, 4453
17617, 4281, 4285, 2299, 4446
17618, 4285, 2299,  517,  518
17619, 4297, 2338, 2374, 2339
17620, 4335, 2321, 2315, 2316
17621, 2261, 2150, 2149,  471
17622, 4362, 4396, 2373, 4364
17623, 4352,  491, 2235, 2230
17624, 4348,  464,  465, 2255
17625, 2349,  516,  517, 2304
17626, 2341, 4368, 4431, 2365
17627, 4447,  149,   12,  518
17628, 4435, 2190, 2204, 2203
17629, 4460,  154,  153,  927
17630, 4454, 2306, 2307, 2312
17631, 2345,  476,  475, 2198
17632, 4351,   13,  155,  510
17633,  916,  909, 4439, 4438
17634, 2336,  478, 2201,  479
17635, 4351,  510,  155, 2270
17636, 2202,  479, 4235, 2201
17637, 4488,  152,  920,  153
17638, 4495, 2190, 4456, 4450
17639, 4446, 4247, 2305, 2300
17640, 4348,  464, 2156,  465
17641, 4281, 2294, 2295, 2300
17642, 4488,  927, 4460,  153
17643, 4234, 2355, 2344,  480
17644, 4246, 2302, 2301, 2296
17645, 4244, 2297, 4460, 2298
17646, 2203,  480,  481, 2343
17647, 4405, 2256, 2266, 2287
17648, 4488,  920,  927,  153
17649, 4387,  927,  920,  919
17650, 4283, 2295,  151, 2296
17651, 4284,  151, 2295,  150
17652, 4351,  154,  934,   13
17653, 4262, 4263, 2169, 4279
17654, 4446, 2300, 2305, 2299
17655, 4397, 2151, 2150,  470
17656, 4249, 4282, 4253, 4347
17657, 4436, 2192, 2205, 2191
17658, 4361, 4448, 2335, 2367
17659, 4254, 2360, 2372, 2367
17660, 4448, 2349, 2357, 2335
17661, 4479, 2180, 4343, 2167
17662, 4447,  148,  149, 2372
17663, 2303,  509, 2266,  508
17664, 4285, 4254, 4447, 2356
17665, 4409,  925,  918,  917
17666, 4386, 4360, 4249, 4385
17667,  484, 2340, 2206,  483
17668, 4292,  900, 4294, 4350
17669, 4349,  487,  488, 2215
17670, 4295,  908,  909,  901
17671, 4481,  914,  907,  165
17672, 4410, 2182, 2195, 2181
17673, 2334,   32,  486, 2209
17674, 4385, 2180, 2194, 2193
17675, 2339,  485, 2207, 4357
17676, 4369, 4346, 4398, 4406
17677, 4419,  921, 4466,  928
17678, 4293, 2214, 2219, 2213
17679, 4349, 2214, 2220, 2219
17680, 4467, 2267, 2289,  161
17681, 4249, 2180, 4333, 2179
17682, 4261, 4260, 4437,  923
17683, 4257, 2156, 2169, 2155
17684, 4452, 2306, 2311, 2305
17685, 2338,  485, 2208,  486
17686, 4458, 2318, 2317, 2312
17687, 4338, 2321, 4455, 2322
17688, 4335, 4455, 2316, 4456
17689, 4439,  917,  909,  916
17690, 4480, 4458, 4395, 4455
17691, 2151, 2258, 4397, 4458
17692, 4248, 2300, 2295, 2301
17693, 2298,  509,  510, 2270
17694, 4443, 2338, 2348, 4411
17695, 4283,  920, 4488,  152
17696, 4351, 2270,  155, 2276
17697, 4398,  933,  934,  926
17698, 2267, 2216,  502, 2211
17699, 4393, 2278, 2279, 2126
17700, 4388, 2254, 2278, 2277
17701, 2265, 2221,  501, 2216
17702, 4393, 2131, 2278, 2126
17703, 4338, 4432, 4480, 4455
17704, 2328, 4371, 2273,  504
17705, 4330, 4444, 2111,  439
17706, 4465, 2217, 2211, 2212
17707, 4467, 2211,  502,   14
17708, 4330, 4324, 2292, 2111
17709, 4326, 2146, 4413, 4476
17710, 4476, 2146, 2263, 2260
17711, 4467, 2267,  502, 2211
17712, 4326, 2291, 2252, 2260
17713, 4392, 4315, 4317, 2161
17714, 4472, 2251, 2286, 2264
17715, 4327,  143, 2369,   11
17716, 4474, 2221, 2286, 2265
17717, 4280, 2156, 2262, 4278
17718, 4472, 4473, 4277, 2251
17719, 4277, 2251, 2262, 2265
17720,  499, 2226, 2286, 2264
17721, 4445, 4418, 4473, 2158
17722, 4473, 2251, 2264,   31
17723, 4487,  164, 2213,  163
17724, 4294,  901, 2363, 2375
17725, 4465, 2217, 2216, 2211
17726, 4438,  908,  916,  909
17727, 2261, 2253, 4390, 2150
17728, 4344, 2153, 2256, 2259
17729, 4280, 2283, 2288, 2255
17730, 2338,  486, 2208, 2209
17731, 4341, 2259, 2281, 2257
17732, 4344, 2287, 4406, 2259
17733, 4257, 2168, 2155, 2169
17734, 4369, 4398, 4346,  933
17735, 4481, 4350, 4293, 2214
17736, 4437, 4263, 4420, 4438
17737, 4295,  902, 2363,  901
17738, 4275, 4279, 4492, 4489
17739, 4383, 4287, 4290, 4296
17740, 4276, 2265, 2267, 2216
17741, 4277, 2251, 4473, 2157
17742, 4466, 4469, 4487,  921
17743, 2152, 4483,  468, 2258
17744, 4467,  161,  928,  162
17745, 4481,  165,  164,  914
17746, 4294, 2352, 2369, 2375
17747, 4382,  484, 2340, 2207
17748, 4352, 2334,  490, 2376
17749, 2265, 2216,  501, 2267
17750, 4327,  487, 2215,  166
17751, 4477, 2236, 4242, 2231
17752, 4350,  166, 2215,  165
17753, 4241, 2263, 4476, 2146
17754, 4472, 4445, 4242, 4418
17755, 4443,  489,  488, 2348
17756, 4242, 2231,  499, 2226
17757, 4241, 4242, 4418, 2231
17758, 4329,  497, 2236, 2241
17759, 4268, 4325, 4414, 2117
17760, 4416, 2242, 2241, 2236
17761, 4438, 4291,  915,  908
17762, 4324, 2291, 2269, 2292
17763, 4383, 2195, 2196, 2209
17764, 2210, 4426, 2196, 4428
17765, 4328, 2268, 2269, 2291
17766, 4328, 2241, 4331, 2246
17767, 4330, 2111, 2292,  462
17768, 2268, 4326, 2291, 4328
17769, 4444, 2112, 4325, 2111
17770, 4322,  461, 2292, 2116
17771, 4324, 2116, 2292, 2111
17772, 4342, 4259, 4345, 4343
17773, 2261, 4388, 4391, 2277
17774, 2207, 4359, 2193, 2206
17775, 4470, 4316, 2122, 2127
17776, 4424, 2229, 2228, 2223
17777, 4349, 2214, 2215, 2220
17778, 4292,  908,  901,  900
17779, 4413, 2160, 2159, 2146
17780, 4345, 4386, 4347, 4343
17781, 4262, 4275, 2170, 2157
17782, 4323, 2291, 2280, 2252
17783, 4268, 4470, 2122, 2123
17784, 4475, 2252, 2254,  472
17785, 2280,  460, 4322, 2279
17786, 4418, 2158, 2171, 2157
17787, 4277, 2262, 2157, 2156
17788, 2267,  501,  502, 2216
17789, 4328,  495,  496, 2246
17790, 4268, 4462, 2118, 4414
17791, 4324, 2292, 2280, 2291
17792, 4328, 2268,  496, 2269
17793, 4318, 2160, 4315, 4269
17794, 4388,  458, 2278, 2131
17795, 4316, 4475, 4323, 2279
17796, 4323, 2252, 2280, 2279
17797, 4373, 4336, 4432, 4338
17798, 4468, 2217, 2212, 2218
17799, 4371, 2328, 4372,  504
17800, 2261, 2253, 2150,  470
17801, 4389, 2290,  457, 2136
17802,  472, 2149, 2254, 2148
17803, 4292, 4350, 4293, 4291
17804, 4273, 2182, 2181, 2168
17805, 4441, 2161, 4392, 2162
17806, 4422, 2196, 2183, 2197
17807, 4456, 4432, 2177, 4334
17808, 4425, 4408, 2184, 4423
17809, 4402, 2327, 2332, 2326
17810, 2210, 4426, 4422, 2196
17811, 4289, 2223, 2218, 2224
17812, 4391, 2162, 4392, 2149
17813, 4371, 4377, 4376, 2273
17814, 4349,  488, 2220, 2215
17815, 2234, 4424, 2228, 4491
17816, 4473,  463,   31, 2158
17817, 4376, 2290,  457,  456
17818, 4465, 2211, 4466, 2212
17819, 4276, 2222, 2221, 2216
17820, 4371, 4390, 2284, 4374
17821, 4371, 4372, 2328, 4373
17822, 4275, 4418, 2157, 4473
17823, 4399, 4404, 2142, 4403
17824, 4479, 2181, 2180, 2167
17825, 2286,  500, 2226,  499
17826, 4374, 2253, 2284, 2272
17827, 4425, 2185, 2197, 2184
17828, 4289, 4293, 2219, 2218
17829, 4426, 2224, 2225, 2230
17830, 4397, 2253, 2271,  469
17831, 4425, 2172, 2185, 2184
17832, 4408, 2233, 2227, 2228
17833, 4390, 4389, 4377, 2277
17834, 4289, 2219, 4443, 2224
17835, 2224, 2223, 4424, 4289
17836, 4489, 2228, 2227, 2222
17837, 4456, 2178, 2164, 2165
17838, 4372, 2271, 4397, 2253
17839, 4288, 2217, 2218, 2223
17840, 4241, 4418, 2232, 2231
17841, 4335, 2325, 2320, 2326
17842, 4497, 4498, 4499, 1154
17843, 4497, 1153, 4499, 4500
17844, 2462, 4501, 4502, 2475
17845, 4503, 4501, 4504, 4505
17846, 4505, 4503, 4506, 4504
17847, 4501, 4505, 4503, 4507
17848, 2446, 4508, 2462, 4509
17849, 4501, 4505, 4507, 4510
17850, 4501, 4511, 4502, 4510
17851, 4501, 4507, 4511, 4510
17852, 4512, 4513, 4514, 4515
17853, 4512, 4513, 4516, 4517
17854, 2468, 4518, 4504, 4502
17855, 4512, 4515, 4519, 4520
17856, 4516, 4512, 4520, 4513
17857, 4521, 4520, 4522, 4512
17858, 4512, 4521, 4523, 4524
17859, 4525, 4526, 2568, 2573
17860, 4525, 4527, 4528, 4529
17861, 4525, 2568, 4526, 4529
17862, 4525, 2569, 4529, 4528
17863, 4530, 2386, 4531, 4532
17864, 4530, 4531, 2386, 2531
17865, 4530, 4533, 2555, 4534
17866, 4530, 2555, 4533, 2531
17867, 4530, 2535, 2531,  522
17868, 4530, 2385, 2535,  522
17869, 4535, 2392, 2405, 2391
17870, 4536, 4537, 4538, 4539
17871, 4536, 2636, 4537, 4540
17872, 4536, 4540, 4541, 2636
17873, 4536, 4537, 4542, 4538
17874, 4536, 4543, 4544, 4545
17875, 4544, 4542, 4505, 4538
17876, 4542, 4536, 4544, 4541
17877, 2542, 4546, 2510, 2505
17878, 4498, 2551,  247, 2564
17879, 4498, 4547, 2564, 4548
17880, 4498, 4547, 4548, 4499
17881, 4498, 2551,  248,  247
17882, 4498, 2551, 4547, 4549
17883, 4498,  248, 1159, 1154
17884, 4550, 4551, 4552, 4553
17885, 4551, 4554, 4553, 4550
17886, 4550, 2567, 4555, 2526
17887, 4556, 4555, 4554, 4550
17888, 4550, 2390, 4554, 2377
17889, 4550, 4556, 2536, 4557
17890, 4550, 4556, 4557, 4554
17891, 4558, 2411, 4559, 2412
17892, 4558, 4560, 4561, 4562
17893, 4558, 4559, 4563, 4562
17894, 2494, 2465, 2499,  563
17895, 4564, 4561, 2424, 4558
17896, 4558, 4559, 2411, 4564
17897, 4565, 4566, 2420, 2407
17898, 4567, 4565, 4568, 4569
17899, 4565, 4570, 4569, 4571
17900, 4565, 4571, 4572, 4573
17901, 4565, 4574, 2420, 4566
17902, 4565, 4575, 4576, 4577
17903, 4578, 4579, 4580, 2378
17904, 4581, 4568, 4582, 4574
17905, 4582, 4583, 4576, 4584
17906, 4582, 4576, 4583, 4574
17907, 4574, 4568, 4582, 4576
17908, 4576, 4565, 4574, 4568
17909, 4582, 4568, 4585, 4584
17910, 4582, 4568, 4581, 4586
17911, 4582, 4587, 4588, 4585
17912, 4521, 4589, 4524, 4522
17913, 4521, 2481, 4519, 2459
17914, 4521, 4589,  549, 2598
17915, 2593, 4523, 2459, 2598
17916, 4523, 2459, 2598, 4521
17917, 4521, 2598,  549, 2459
17918, 4579, 4580, 2378, 4590
17919, 4591, 4592, 4593, 4594
17920, 4595, 2400, 4594, 4592
17921, 4596,  587, 2550, 2546
17922, 4595, 4592, 2413, 2400
17923, 4595, 2413, 4597, 2412
17924, 4595, 4559, 4598, 4593
17925, 4599, 4524, 4600, 4601
17926, 4599, 4602, 2599, 4523
17927, 4599, 4603, 2605, 2600
17928, 4599, 4602, 4603, 2600
17929, 4599, 2605, 4603, 4604
17930, 4536, 4540, 4605, 4541
17931, 4537, 2631, 4542, 4606
17932, 2438, 4607, 2439, 4608
17933, 4532, 4609, 4530, 4537
17934, 4537, 4606, 4609, 4610
17935, 4537, 4532, 4606, 4564
17936, 4518, 4611, 4502, 2633
17937, 4530, 4539, 4537, 4534
17938, 2451, 4612, 2455, 2504
17939, 4599, 4602, 4613, 4603
17940, 4602, 4614, 4603, 2600
17941, 4512, 4599, 4613, 4601
17942, 4512, 4599, 4602, 4613
17943, 4602, 4615, 4616, 4617
17944, 4602, 4615, 4617, 4618
17945, 4602, 4615, 4618, 4614
17946, 4512, 4613, 4514, 4513
17947, 1169, 4619, 1163, 4620
17948, 4619,  250, 2554, 4620
17949,  250, 1169, 4620, 4619
17950, 4619, 2553,  250,  249
17951, 4605, 2642,  570, 2641
17952, 2446, 4509, 2462, 4501
17953, 2553, 4621, 2552, 4619
17954, 2553, 4590, 4619, 2554
17955, 4622, 4623, 4500, 4624
17956, 4499, 4625, 4622, 4569
17957, 4497, 1149, 4623, 4626
17958, 4497, 4623, 1148, 4500
17959, 4497, 4623, 1149, 1148
17960, 2483, 4522, 4589, 2481
17961, 4627, 4628, 4629, 4630
17962, 4609, 2632, 2631, 2626
17963, 4589, 2460,  549,  550
17964, 4631, 4629, 4628, 2381
17965, 4631, 4629,  526, 2530
17966, 2380, 4631, 4547, 4625
17967, 4631, 4625, 2380, 2381
17968, 4631, 2532, 2530,  526
17969, 2490, 2543,  577, 4630
17970, 4630,  576,  577, 2495
17971, 4630, 4627, 2543, 2530
17972, 4630, 4627, 2530, 4629
17973, 4630, 4632, 4633, 4628
17974, 4630, 4629, 2548, 4632
17975, 4530, 4609, 4532, 4531
17976, 2459, 4521, 4589,  549
17977, 2556, 4609, 2632, 4533
17978, 4533, 2556, 4609, 4531
17979, 4533, 2632,  589, 2555
17980, 4533, 2632, 2556,  589
17981, 2634, 2629, 4611, 4563
17982, 4563, 4562, 4559, 4606
17983, 4558, 4564, 4563, 4559
17984, 4634, 2484, 2453,  547
17985, 2629, 4563, 4562, 4560
17986, 4563, 4564, 4560, 4611
17987, 4562, 4563, 2630, 4606
17988, 2630, 4606, 2625, 4562
17989, 4563, 2631, 4542, 2630
17990, 4563, 4542, 2631, 4606
17991, 4511, 4635, 4508, 2464
17992, 4511,  560, 2464, 2462
17993, 4636,  257,  207, 1175
17994, 4511,  559,  560, 2462
17995, 4511, 2463, 2519,  559
17996, 4539, 4637, 4638, 4544
17997, 4539, 4536, 4534, 4639
17998, 4539, 2398, 4532, 4538
17999, 4539, 4637, 2384, 4640
18000, 4539, 4538, 2397, 2398
18001, 4539, 4544, 4543, 4637
18002, 4539, 4543, 4639, 4637
18003, 4576, 4575, 4568, 4584
18004, 4582, 4574, 4583, 4641
18005, 4576, 4584, 4642, 4643
18006, 2535, 2385,  523,  522
18007, 4576, 4584, 4583, 4642
18008, 4644, 2602, 4645, 4646
18009, 4647, 4648, 4649, 4644
18010, 4650, 4651,  545, 2578
18011, 4650, 4652, 4526, 4653
18012, 4650, 4653, 4654, 4652
18013, 4650,  544, 4526, 2573
18014, 4650, 4526, 2482, 4653
18015, 4650, 4526, 2458, 2482
18016, 4505, 4544, 4538, 4638
18017, 4501, 4509, 4507, 4503
18018, 4615, 4655, 2589, 4656
18019, 4584, 1146, 1151, 1145
18020, 4505, 4510, 4611, 4657
18021, 4505, 4611, 4510, 4504
18022, 4505, 4541, 4544, 4658
18023, 4505, 4544, 4638, 4659
18024, 4639, 4536, 4534, 4540
18025, 2453,   34, 2440, 2441
18026, 4577, 4574, 4576, 4565
18027, 4576, 4577, 4575, 2493
18028, 4569, 4568, 4581, 4565
18029, 4660, 4568, 4581, 4569
18030, 4584, 4585, 1151, 4661
18031, 4568, 4660, 4586, 4661
18032, 4565, 4567, 4572, 4569
18033, 4568, 4567, 4569, 4661
18034, 4575, 4567, 4565, 4568
18035,  549, 2459, 2460, 4589
18036, 4510, 2523, 4662, 4658
18037, 4501, 4505, 4510, 4504
18038, 4510, 4502, 4504, 4611
18039, 4519, 2453, 2443, 2440
18040, 4502, 2462, 2463, 4511
18041, 4510, 4662, 4663, 4657
18042, 4619, 4549, 4621, 2552
18043, 4621, 4590,  528, 2379
18044, 4621, 4590, 2528,  528
18045, 2379, 4664, 2380, 4621
18046, 4621, 4665, 4580, 2379
18047, 4619, 4621, 4590, 2553
18048, 4619, 4620, 4590, 4621
18049, 4600,  597, 2603, 2604
18050, 4621, 4620, 4590, 4580
18051,  210, 4666, 4667, 1160
18052, 4666, 4588, 4587, 4585
18053, 4666, 4587, 2472, 2447
18054, 4666, 1150, 4585, 1155
18055, 4666, 2472,  212,  211
18056, 4572, 2497, 4633, 2496
18057, 4572, 4668, 2496, 4633
18058, 4565, 4573, 4572, 4567
18059, 1174, 1179,  252, 2566
18060, 4572, 4633, 2497, 4573
18061, 4565, 4569, 4572, 4571
18062, 4498, 4497, 4626, 1154
18063, 4569, 4500, 4661, 4567
18064, 4569, 4660, 4499, 4570
18065, 1165, 1160, 4667, 4669
18066, 4626,  578, 2544,  246
18067, 2473,  210, 4666, 4667
18068, 4667, 2473,  210, 2466
18069, 4667, 4670, 4587, 4671
18070, 4666, 2473,  211,  210
18071, 4667, 4672, 2447, 2466
18072, 4667, 4587, 4672, 4671
18073, 4666, 4667, 2447, 2473
18074, 4584, 4643, 1145, 4642
18075, 4582, 4586, 4581, 4673
18076, 4584, 1150, 4588, 2467
18077, 4584, 2467, 4588, 4583
18078, 4576, 2489, 4643, 4642
18079, 4568, 4565, 4574, 4581
18080, 4519, 4616, 2593, 2484
18081, 4519, 2440, 4515, 4617
18082, 2481, 4522, 4589, 4521
18083, 4512, 4521, 4519, 4523
18084, 4512, 4523, 4519, 4515
18085, 4546, 4674, 4675, 4640
18086, 4512, 4520, 4513, 4515
18087, 4512, 4519, 4521, 4520
18088, 4676, 4677, 2617, 4678
18089, 4519, 4523, 2593, 4616
18090, 4676, 2616, 4678, 2617
18091, 4644, 4649, 4676, 4645
18092, 4676, 4649, 4592, 4591
18093, 4526, 2456,  544, 2458
18094, 4676, 4679, 4613, 4680
18095, 4676, 4678, 2616, 4680
18096, 2608,  551, 2476,   35
18097, 4681, 4682, 2470, 4607
18098, 2613, 2471,  552, 4682
18099, 4682, 4516, 2618, 2613
18100, 4682,  552,  553, 2471
18101, 4520, 4516, 4608, 4607
18102, 4682, 2442, 4607, 4520
18103, 4682, 4607, 2442, 2470
18104, 4656, 4683, 2428, 4684
18105, 4683, 2428, 4684, 4685
18106, 4685, 2428, 4686, 2416
18107, 4685, 2441, 4687, 4683
18108, 4685, 4651, 4683, 4687
18109, 4541, 2640, 2635, 2641
18110, 4685, 4651, 4684, 4683
18111, 4685, 2441, 4683, 2428
18112, 4518, 2629, 4681, 4560
18113, 2635, 4611, 4563, 2634
18114, 2629, 4611, 4563, 4560
18115, 4560, 4561, 4562, 4681
18116, 4563, 4611, 2635, 4542
18117, 4560, 4506, 4611, 4564
18118, 4529,  257, 2569, 2568
18119, 4564, 4561, 4560, 4506
18120, 4589, 2476, 2483, 2460
18121, 4610, 2637, 2636, 2631
18122, 4543, 4540, 4639, 4596
18123, 4543, 4544, 2516, 4674
18124, 4543, 4596, 4639, 2520
18125, 4543, 2515, 4637, 4674
18126, 4543, 2521, 4605, 2520
18127, 4543, 4545, 2521, 2516
18128, 4688, 2592,  582, 2560
18129, 4650, 4652, 4654, 4689
18130, 4688, 2537, 4690, 4691
18131, 4688, 4691, 4690, 4648
18132, 4687, 2457, 2453,   34
18133, 4688, 2597, 4692, 2592
18134, 4512, 4613, 4517, 4601
18135, 4512, 4517, 4516, 4601
18136, 4512, 4524, 4601, 4522
18137, 4512, 4602, 4514, 4613
18138, 4526, 2573,  544,  543
18139, 4526, 4653, 4693, 2482
18140, 4651, 2450, 4654, 4650
18141, 2450, 4650, 2482, 4653
18142, 4650, 4689, 4526, 4652
18143, 4526, 4693, 2456, 2482
18144, 4650, 2458, 4526,  544
18145, 4649, 4591, 4694, 4594
18146, 4644, 4676, 4649, 4647
18147, 4649, 4648, 2388, 4691
18148, 4649, 4594, 2400, 4592
18149, 2561, 4645, 4694, 4691
18150, 4645, 4694, 4691, 4649
18151, 4549, 1164, 1163, 1158
18152, 4637, 4674, 2515, 2510
18153, 4637, 4544, 4674, 4638
18154, 4637, 2515, 4639, 2547
18155, 4536, 4543, 4539, 4544
18156, 4547, 2528, 4549, 2551
18157, 4498, 4549, 4499, 1159
18158, 4631, 2532, 4547, 2558
18159, 4631, 4625, 4627, 4548
18160, 4631, 2558, 4547, 4548
18161, 4547, 2564, 4548, 2558
18162, 4498, 2564, 4547, 2551
18163, 4498, 1159, 4499, 1154
18164, 4497, 4499, 4498, 4548
18165, 4653, 4652, 4695, 4654
18166, 4653, 4696, 2417, 4695
18167, 4697, 2641,  569, 2640
18168, 4653, 4652, 4693, 4698
18169, 4653, 4699, 4698, 4700
18170, 2430, 4654, 2450, 4653
18171,  548, 2598, 2459,  549
18172, 4636,  207,  543, 2456
18173,  532, 2430, 2450, 2448
18174, 4647, 2414, 2400, 2401
18175, 2448, 4653, 2482, 4700
18176, 4525, 4526, 4652, 4693
18177, 4526,  543, 4636, 2568
18178, 2453, 4634, 4683, 2440
18179, 2417, 4653, 4699, 4696
18180, 4701, 4652, 4696, 4527
18181, 4525, 4701, 4702, 2574
18182, 4696, 4652, 4653, 4698
18183, 4652, 4698, 4703, 4527
18184, 4652, 4698, 4696, 4703
18185, 4652, 4689, 4702, 4695
18186, 4538, 4638, 4503, 4505
18187, 4599, 2600, 2605, 2599
18188, 4693, 2456, 2482, 2479
18189, 4544, 2516, 4674, 2511
18190, 4544, 2517, 4659, 4658
18191, 4543, 4637, 4544, 4674
18192, 4544, 4638, 4659, 4675
18193, 4524, 4600, 4601, 4522
18194, 4589, 4600, 2608,  598
18195, 2476,  598,  550, 4589
18196, 2386, 4694, 2387, 2529
18197, 4589, 2481, 2460, 2483
18198, 4589,  549, 2598, 2603
18199, 4589,  550,  549, 2603
18200, 4521, 4589, 2598, 4524
18201, 4704, 4705, 4706, 4707
18202, 4704, 4705, 4708, 4709
18203, 4704, 4705, 4709, 4566
18204, 2532, 2380,  527, 2381
18205, 4704, 4710, 4612, 4711
18206, 4704, 4710, 4711, 2422
18207, 4704, 4710, 2422, 4706
18208, 4555, 2567, 4556, 2582
18209,  585, 4555, 4712, 2577
18210, 4555,  584,  585, 2540
18211, 4712, 4553, 2577, 4555
18212, 4650,  544, 2578,  545
18213, 4555, 2567, 2582,  584
18214, 4713,  253, 4714, 1179
18215, 4526, 4636, 2456, 4693
18216, 2565, 2566, 4712, 4715
18217, 4713, 1174, 4715, 2566
18218, 4713, 4715, 4716, 4717
18219, 4713, 4715, 1174, 4716
18220, 4713, 4714, 2572, 4718
18221, 4713, 4712, 4715, 4717
18222, 4719,  208, 2474,  209
18223,  209, 4719, 2466, 2474
18224, 4719, 4698, 4669, 4700
18225, 4719, 4700, 2466, 2474
18226, 4719, 2479, 2474,  208
18227, 4719, 4698, 4527, 1171
18228, 4719, 4693, 2474, 2479
18229, 4719, 4698, 4693, 4527
18230, 4525, 4652, 4526, 4689
18231, 4698, 4703, 1171, 1166
18232, 1166, 4698, 1165, 1171
18233, 4719, 4700, 4669, 2466
18234, 4719, 1171, 4527, 1170
18235, 4651, 2429, 4654, 2450
18236, 4651, 2457, 2583, 4683
18237, 4651, 4689, 4684, 2578
18238, 4593, 2620, 2626, 2625
18239, 4605, 4545, 4697, 2521
18240, 4650, 4651, 4689, 4654
18241,  545, 4651, 2583, 2578
18242, 4650,  545, 4651, 2458
18243, 2636, 2631, 4542, 4537
18244, 4540, 2641, 4605, 4541
18245, 4540, 4534, 2637, 4610
18246, 4518, 2468,  555,  556
18247, 4518, 2469,  555, 2468
18248, 4518, 4504, 4502, 4611
18249, 4518, 4611, 2633, 2634
18250, 4518, 4720, 4504, 4561
18251, 4518, 2469, 4720, 4681
18252, 4510, 2463, 4721, 2524
18253, 4720, 4518, 4504, 2468
18254, 4504, 4506, 4611, 4560
18255, 4518, 4502, 2468, 2480
18256, 4681, 2623, 2629, 2628
18257, 4653, 4700, 4693, 2482
18258,   33, 2536, 2377,  530
18259, 4560, 4518, 2629, 4611
18260, 4560, 4681, 4518, 4561
18261, 4505, 4504, 4506, 4611
18262, 4504, 4722, 4509, 2436
18263, 4504, 4722, 2436, 2437
18264, 2437, 4504, 4720, 4561
18265, 4620, 4580, 4715, 4590
18266, 4665, 2392, 4535, 4580
18267, 4535, 4580, 4723, 4665
18268, 4508, 2435, 2436,  538
18269, 4508, 2462, 4509, 4511
18270, 4724, 4725, 4711, 2455
18271, 4725, 4508, 2451,  537
18272, 4508,  537,  538, 2446
18273, 2435, 4711, 4725, 4508
18274, 4552, 4726, 4727, 4717
18275, 4635, 2451, 4508, 2464
18276, 4727, 2404, 4728, 4696
18277, 4632, 2548, 2382, 4629
18278, 4631,  526, 4629, 2381
18279, 4629,  526, 2530,  525
18280, 2382, 2548,  525, 4629
18281, 4588,  212, 2472, 2467
18282, 4630, 4629, 4632, 4628
18283, 4631, 4628, 4629, 4627
18284, 4630, 2500, 2548,  575
18285, 2382, 2381, 4632, 4629
18286, 4501, 4509, 4511, 4507
18287, 4611, 4542, 4657, 2635
18288, 4518, 2633, 2480,  556
18289, 4611, 4663, 4502, 2633
18290, 4611, 4663, 4510, 4502
18291, 4588, 2452, 2478, 2472
18292, 4503, 4506, 4564, 4505
18293, 4638, 4707, 2397, 2410
18294, 2410, 4506, 4564, 4503
18295, 4544, 4675, 2511, 4674
18296, 4638, 4503, 4659, 4706
18297, 4565, 4566, 4571, 4573
18298, 4545, 2517, 2522, 2516
18299, 4727, 4535, 2405, 2391
18300, 4569, 4628, 4571, 4570
18301, 4565, 4575, 4573, 4567
18302, 4572, 4668, 4633, 4628
18303, 4572, 4571, 4569, 4628
18304, 4571, 2407, 4570, 2394
18305, 4596,  570,  571, 2520
18306, 4571, 4566, 4709, 4573
18307, 4565, 4569, 4570, 4581
18308, 4571, 4632, 4628, 4633
18309, 4632, 4628, 2381, 2394
18310, 4585, 1151, 1156, 1150
18311, 2381, 4632, 4629, 4628
18312, 4632, 2382, 4729, 4730
18313, 4556, 2582,  584,  583
18314, 4556, 2582, 2567,  584
18315, 4556, 4554, 2587, 4731
18316, 4556, 4557, 4554, 4731
18317, 4550, 4554, 4557, 2377
18318, 4550, 4555, 4554, 4553
18319, 4555, 4554, 4553, 2582
18320, 4550, 4555, 4552, 4579
18321, 4554, 4553, 2582, 2581
18322, 4554, 4553, 2581, 4732
18323, 4554, 2390, 4551, 4732
18324, 4511,  559, 2462, 2463
18325, 2582, 4555, 4554, 4556
18326, 4688, 4556,  583, 2587
18327, 4636, 4693, 1170, 2479
18328, 4636,  207, 2479,  208
18329, 4733, 4701, 2570, 4718
18330, 4529, 4636, 1175,  257
18331, 4526, 4529, 4636, 4693
18332, 4636, 4693, 2479, 2456
18333, 4565, 4577, 4574, 4566
18334, 4574, 4734, 4577, 4583
18335, 4582, 2433, 4574, 4641
18336, 4721, 4502, 2633, 2480
18337, 4721,  556, 2638,  557
18338, 4721, 4663,  566, 2638
18339, 4721, 4502, 2480, 2463
18340, 4510, 4502, 4721, 2463
18341, 4662, 4657, 4541, 2640
18342, 4662, 4663, 2639,  567
18343, 4662,  568, 4697, 2522
18344, 4662,  567,  568, 2522
18345, 4608, 4513, 4735, 4516
18346, 4515, 4617, 2427, 4514
18347, 4519, 4617, 4515, 4523
18348, 4515, 4520, 2439, 2443
18349, 4513, 2439, 4608, 2426
18350, 4622, 4569, 4572, 4567
18351, 4622, 2486, 4623, 4624
18352, 4623, 4624, 2486,  244
18353, 4623, 4626, 1149,  245
18354, 4623,  245,  244, 2486
18355, 4736, 4499, 1158, 4660
18356, 4736, 1163, 4665, 4737
18357, 4517, 2620, 4735, 2619
18358, 4586, 4736, 4673, 4737
18359, 4549, 4736, 1163, 4665
18360, 4549, 4736, 4665, 4664
18361, 4736, 4737, 4665, 4673
18362, 4572, 4571, 4628, 4633
18363, 2543, 4627, 4630, 2490
18364, 4630, 4629, 2530, 2548
18365, 4631, 4625, 4628, 4627
18366, 2477, 4651, 2457, 2583
18367, 4622, 4623, 2486, 2485
18368, 4630, 4668, 4627, 4628
18369, 4622, 4627, 4625, 4548
18370, 4625, 4738, 4499, 4664
18371, 4624, 4661, 4739, 1147
18372, 4622, 4567, 4624, 4500
18373, 4624, 4739, 2487,  243
18374, 4623, 4624,  244, 1148
18375, 4624, 1148,  243,  244
18376, 4601, 4599, 4604, 4600
18377, 4524, 4523, 2599, 2598
18378, 4600, 4589, 4522, 4524
18379,  551, 2608, 2476, 2483
18380, 4589, 4524, 4600, 2603
18381, 4521, 4524, 2598, 4523
18382, 4527, 4528, 4529, 1176
18383, 4529, 1176, 4528,  256
18384, 4629,  525, 2382,  526
18385, 4733, 4701, 1177, 4528
18386, 4716, 4733, 4701, 1177
18387, 4737, 4673, 4671, 4728
18388, 4528,  256, 1176,  255
18389, 4528, 4733, 2570,  255
18390, 4713, 2572,  253, 2559
18391, 4713, 4714, 4718, 4716
18392, 4714, 4733, 4718, 4716
18393, 4714, 4733,  254, 2571
18394, 4714, 1178,  253,  254
18395, 4522, 2483, 2471, 2481
18396, 4714, 4718, 4733, 2571
18397, 4733,  255, 2571, 2570
18398, 4714,  254, 4733, 1178
18399, 4733, 1177,  254,  255
18400, 4666,  212, 4588, 1150
18401, 4588, 4583, 2478, 4641
18402, 4588, 4641, 2478, 2452
18403, 4582, 4641, 4588, 4587
18404, 4666, 2472, 4588,  212
18405, 4613, 4680, 4740, 4603
18406, 4613, 4604, 4740, 2610
18407, 4740,  595, 4741, 2611
18408, 4740, 2605,  596, 4604
18409, 4740, 2611,  596,  595
18410, 4634, 2484,  547,  548
18411, 2440, 4634, 4683, 4656
18412, 4634, 2588,  546, 2583
18413, 4634, 2588,  547,  546
18414, 4634, 4616, 2440, 2453
18415, 4634, 2583, 4683, 2588
18416, 4634, 2593, 4616, 2484
18417, 4634, 2588, 4683, 4656
18418, 4586, 1156, 4585, 1151
18419, 4666, 4585, 4587, 4670
18420, 2419, 4582, 4671, 4587
18421, 4585, 1156, 4670, 1155
18422, 4525, 4689, 2573, 2574
18423, 4624, 4661, 4500, 4567
18424, 1170, 4527, 1176, 1171
18425, 4636,   17,  257, 2568
18426, 4529, 2568, 4636,  257
18427, 4613, 2615, 2614, 2609
18428, 4529,  256, 1175, 1176
18429, 4529, 2569,  257,  256
18430, 4687, 4683, 2441, 2453
18431, 4651, 2457, 4687, 2454
18432, 4687, 2454,   34,  531
18433, 4651, 4685, 2429, 4687
18434, 4607, 2469, 2445, 2470
18435, 4687, 2454,  531, 2429
18436, 4600, 2603,  597,  598
18437, 4700, 2448, 4672, 2466
18438, 4700, 2474, 4693, 2482
18439, 2507, 4705, 4742, 2508
18440, 4705, 4742, 2508, 4710
18441, 2508, 4635, 4612, 4710
18442, 4581, 4582, 4673, 2419
18443, 4704, 4710, 4705, 4612
18444, 2542, 4546, 2505, 2534
18445, 4546, 4729, 2382, 4730
18446, 4546, 2506, 4729, 4730
18447, 2534, 2542,  574, 2505
18448, 4546, 2383, 4730, 2382
18449, 4651, 2454, 4687, 2429
18450, 4687,   34, 2454, 2457
18451, 4641,  535, 2444, 2452
18452, 4719, 4698, 4700, 4693
18453, 4655, 2585, 2591, 2590
18454, 2589, 4684, 2588, 4656
18455, 2390, 4732, 4554, 2402
18456, 4684, 2588, 4656, 4683
18457, 4656, 2440, 2441, 4683
18458, 4634, 2484,  548, 2593
18459, 4687,   34, 2453, 2441
18460, 4683, 2583, 4684, 2588
18461, 4655, 4743, 4615, 2590
18462, 4743, 4686, 2402, 4732
18463, 4732, 4655, 4743, 4686
18464, 4686, 4732, 4655, 4744
18465, 4655, 4731, 4743, 2591
18466, 4685, 4654, 2429, 2416
18467, 4686, 4655, 4684, 4744
18468, 4655, 4731, 2586, 4732
18469, 4682, 4681, 2623, 2618
18470, 4651, 4687, 2457, 4683
18471, 4685, 4684, 4651, 4654
18472, 4684, 4686, 4695, 4685
18473, 4655, 4656, 4684, 2589
18474, 4690,  519,   33, 2389
18475, 4690, 4648, 2389, 4731
18476, 4688, 4648, 4731, 4692
18477, 4690,  519, 4691, 2537
18478, 4643, 4739, 4661, 1146
18479, 4643, 4739,  242, 2488
18480, 4643, 4642, 2489,  241
18481, 4643, 1146,  241,  242
18482, 4688, 4690, 2538, 4557
18483, 4648, 4743, 2401, 2402
18484, 4648, 4649, 4644, 4691
18485, 4644, 4692, 4688, 2597
18486, 4648, 4644, 4688, 4691
18487, 4618, 4647, 4614, 4692
18488, 4648, 4618, 2401, 4743
18489, 4653, 4654, 4695, 2417
18490, 4653, 4699, 4696, 4698
18491, 4650, 4526, 4689, 2573
18492, 4703, 1167, 4745, 4746
18493, 4636,  207, 2456, 2479
18494, 4636, 4529, 1170, 4693
18495, 4525, 4529, 2569, 2568
18496, 4525, 4693, 4652, 4527
18497, 4719, 4693, 2479, 1170
18498, 4525, 2569, 4701, 2574
18499, 4525, 4526, 4693, 4529
18500, 4686, 4551, 4732, 4744
18501, 4686, 4695, 4551, 4744
18502, 4551, 4696, 4695, 2404
18503, 4747, 2437, 2438,  540
18504,  554, 2470, 2623,  553
18505, 4551, 4552, 4726, 4727
18506, 4732, 4554, 4553, 4551
18507, 4606, 2631, 2625, 2626
18508, 4726, 4551, 4727, 4696
18509, 4726, 4551, 4553, 4552
18510, 4721,   36, 2524,  558
18511, 4710, 4705, 4742, 4706
18512, 4515, 2440, 2439, 2426
18513, 4704, 4612, 4705, 4566
18514, 4705, 4708, 2507, 4675
18515, 4675, 4708, 4707, 4705
18516, 4748, 4612, 2421, 4566
18517, 4705, 4708, 4707, 4704
18518, 4603, 2600, 2601, 2606
18519, 4658, 4507, 4505, 4510
18520, 4635, 4742, 4507, 4509
18521, 4508, 4711, 4725, 2451
18522, 4507, 4742, 4503, 4509
18523, 4511, 4507, 4635, 2514
18524, 4501, 4504, 4502, 4722
18525, 4510, 4663, 2523, 2524
18526, 2443,  542, 2439, 2440
18527, 4558, 2412, 4598, 2425
18528, 4561, 4681, 4608, 4562
18529, 4504, 4506, 4561, 2437
18530, 4722, 2437, 4504, 4720
18531, 4504, 2468, 4722, 4720
18532, 4740, 2611, 4680, 2610
18533, 4505, 4564, 4611, 4506
18534, 4747, 4561, 2437, 4720
18535, 4704, 2409, 4707, 4706
18536, 4730, 4708, 4704, 4707
18537, 4708, 4633, 4709, 2502
18538, 4705, 4566, 2503, 4573
18539, 4710, 4742, 4509, 4503
18540, 4609, 4531, 2549, 4591
18541, 4610, 4609, 4537, 4533
18542, 4534, 2632, 4610, 4533
18543, 4530, 4749, 2555, 2535
18544, 4530, 4533, 4531, 2531
18545, 4609, 4531, 2556, 2549
18546, 4533, 4610, 4609, 2632
18547, 4641, 2452, 2432,  535
18548, 4745, 4737, 4670, 4671
18549, 4745, 4670, 4737, 1161
18550, 4745, 4669, 4699, 4671
18551, 4723, 4745, 4728, 4737
18552, 4698, 4745, 4669, 4699
18553, 4711, 2434, 4748, 2421
18554, 4635, 2509, 2451, 2464
18555, 4704, 4705, 4710, 4706
18556, 4704, 2409, 4706, 2422
18557, 4711, 2421, 4748, 4612
18558, 4535, 4673, 2406, 4738
18559, 4511, 4635, 4507, 4509
18560, 4635, 4710, 4711, 4612
18561, 4655, 2586, 4731, 2591
18562, 4742, 4675, 2512, 4659
18563, 2509, 2508, 4635, 4612
18564, 4612, 2421, 4566, 4704
18565, 4706, 4675, 4705, 4742
18566, 4507, 4503, 4742, 4659
18567, 4635, 4507, 2513, 2514
18568, 4704, 2422, 4711, 2421
18569, 4711, 4748, 4734, 4612
18570, 4711, 4724, 4748, 2434
18571, 4574, 4734, 4566, 4577
18572, 4574, 2433, 4748, 4724
18573, 2504, 4734, 4612, 2455
18574, 4745, 4737, 4671, 4728
18575, 4748, 2420, 4566, 2421
18576, 4734, 4566, 4573, 2503
18577, 4734, 4566, 4612, 4748
18578, 2602, 2545, 2539, 4645
18579,  580, 2602, 2545, 2539
18580, 4645, 4750, 4646, 2607
18581, 4645, 4677, 2561, 4694
18582, 4645, 4691, 2561, 2539
18583, 4644, 4692, 2597, 2596
18584, 4676, 4645, 4677, 4678
18585, 4678, 2545, 4750, 4645
18586, 4644, 4645, 4676, 4646
18587, 4645, 4646, 2602, 2607
18588, 4731, 4556, 4688, 2587
18589, 4648, 2389, 4731, 2402
18590, 4731, 4743, 2402, 4732
18591, 4554, 4557, 2389, 4731
18592, 4731, 4692, 2591, 2592
18593, 4688, 2592, 4731, 2587
18594, 4648, 4731, 4692, 4743
18595, 4613, 4597, 4679, 4592
18596, 4601, 4522, 2613, 4516
18597, 4601, 4522, 2608, 2613
18598, 4613, 4647, 4614, 4514
18599, 4512, 4601, 4516, 4522
18600, 4613, 4517, 2614, 2615
18601, 4512, 4613, 4513, 4517
18602, 4522, 4600, 4601, 2608
18603, 4701, 2569, 2575, 2574
18604, 4733, 4701, 4718, 4716
18605, 4525, 4689, 2574, 4702
18606, 4525, 4701, 4652, 4702
18607, 4723, 4535, 4665, 4737
18608, 4658, 2523, 2522, 2517
18609, 1163, 4665, 4737, 4723
18610, 1167, 1162, 4745, 4723
18611, 4615, 4743, 4692, 2590
18612, 4748, 2421, 2434, 2420
18613, 4615, 4616, 4617, 4656
18614, 4602, 2595, 4614, 2600
18615, 4615, 4618, 4743, 4656
18616, 2590, 4615, 4655, 2589
18617, 4722, 2446, 4509, 2436
18618, 4625, 4570, 4499, 4738
18619, 4570, 4738, 2393, 2406
18620, 4722, 2475, 2446, 2449
18621, 2563, 2617, 2557, 4677
18622, 4694, 4645, 4676, 4649
18623, 2563, 2545, 4750, 4678
18624, 2438,  541, 2439, 2442
18625, 4677, 4694, 2557, 2561
18626, 4509, 2462, 4501, 4511
18627, 4742, 4659, 4503, 4706
18628, 4507, 4742, 2513, 4659
18629, 4509, 4503, 2423, 4710
18630, 4706, 4710, 2422, 2423
18631, 2572,  586, 2541,  585
18632, 4503, 2423, 4706, 2410
18633, 4509, 4501, 4504, 4503
18634,  563,  562, 2455, 4734
18635, 2465, 2499,  563, 4734
18636, 2451, 4725, 2455, 4711
18637, 4612, 4711, 2455, 4734
18638, 4577, 4566, 4573, 4734
18639, 4727, 4696, 4728, 4746
18640, 4551, 4727, 2404, 2391
18641, 4744, 4686, 4695, 4684
18642, 4655, 2415, 4656, 4743
18643, 4726, 4744, 4551, 4695
18644, 4684, 4695, 4689, 4654
18645, 4726, 4551, 4744, 4732
18646, 4686, 2390, 2403, 2402
18647, 2415, 4686, 2402, 4743
18648, 4579, 2378,  529, 2525
18649, 4550, 4579, 4751, 2526
18650, 4579, 4552, 4751, 2378
18651, 4579, 4552, 2378, 4578
18652, 4579, 4578, 4717, 4552
18653, 4579, 4717, 4715, 4712
18654, 4555, 4552, 4579, 4712
18655, 4682, 2618, 4516, 4681
18656, 2438, 2442, 2439, 4607
18657, 4747, 4607, 4608, 4681
18658, 4607, 4681, 2445, 2469
18659, 4607, 2470, 4681, 2469
18660, 4607, 2442, 2445,  540
18661, 4607, 2438, 2442,  540
18662, 4747, 4607, 2438, 4608
18663, 4587, 2452, 2447,  534
18664, 4587, 2432, 2452,  534
18665, 4666, 4667, 4587, 2447
18666, 4666, 4667, 1160, 4670
18667, 4667, 4669, 4671, 4672
18668, 2426, 2425, 4597, 2412
18669, 4588, 2472, 4587, 2452
18670, 4747, 4607, 4681, 2445
18671, 4735, 4516, 4681, 4608
18672, 4607, 2439, 4608, 4520
18673, 4608, 4735, 4598, 4562
18674, 4676, 4645, 4678, 4646
18675, 4694, 4531, 4591, 2549
18676, 4694, 4531, 2549, 2529
18677, 4526, 2482, 2456, 2458
18678, 4649, 4594, 4592, 4591
18679, 4694, 2561, 4691, 2533
18680, 4694, 4691, 2387, 2533
18681, 4630, 2495,  577, 2490
18682, 4630, 2548,  576,  575
18683, 4622, 4627, 2490, 4668
18684, 4572, 2496, 4668, 2491
18685, 4630, 4632, 4729, 4633
18686, 4668, 4633, 2495, 2496
18687, 4583, 4642, 2461, 2489
18688, 4584, 4583, 4642, 2467
18689, 4583, 4642, 2467, 2461
18690,  564, 4583, 2489, 2494
18691, 4583, 2465, 2494,  564
18692, 4577, 2499, 4583, 4734
18693, 4576, 4583, 4574, 4577
18694, 4583, 2478, 4641, 2444
18695, 4730, 2395, 2409, 4704
18696, 2409, 2410, 4707, 4706
18697, 4637, 4640, 4638, 4674
18698, 4675, 4705, 4742, 2507
18699,  213, 2467, 1150, 1145
18700, 4730, 4640, 4675, 4707
18701, 4667, 4669, 4672, 2466
18702, 4703, 4745, 4699, 4728
18703, 4698, 4700, 4699, 4669
18704, 4700, 4672, 2431, 4699
18705, 4700, 4669, 2466, 4672
18706, 4703, 4746, 1172, 1167
18707, 4722, 2437, 4720, 2449
18708, 4501, 4722, 2446, 4509
18709, 4501, 4510, 4502, 4504
18710, 4510, 4721, 4502, 4663
18711, 4685, 2429, 4687, 2441
18712, 4722, 4720, 2468, 2449
18713, 4536, 4544, 4539, 4538
18714, 2506, 4546, 4674, 4675
18715, 4539, 4640, 2397, 4638
18716, 4555, 2582, 4553, 2577
18717, 4539, 4640, 2384, 2397
18718, 4507, 2513, 2519, 2518
18719, 4530, 4749, 4534, 2555
18720, 4749, 4534, 2555, 2562
18721, 4639, 2562, 4749, 2527
18722, 4637, 4640, 4674, 2542
18723, 4749, 2527, 2535,  523
18724, 4749, 2384, 2527,  523
18725, 4688, 2560, 4691, 2597
18726, 4644, 2597, 4691, 2539
18727, 4645, 4677, 2545, 2561
18728, 4694, 2533, 2529, 2561
18729, 4694, 2533, 2387, 2529
18730, 4644, 4645, 2539, 4691
18731, 4690, 4557,   33, 2538
18732, 4690, 4557, 4731, 2389
18733, 4649, 2401, 4647, 2400
18734, 4691,  519, 2533, 2537
18735, 4691, 2533,  519, 2388
18736, 4649, 2387, 4691, 2388
18737, 4698, 4699, 4703, 4745
18738, 4699, 4700, 2430, 2431
18739, 2448, 4672, 2431, 4700
18740, 4587, 4672, 2431, 2447
18741, 4587, 2431, 4671, 2432
18742, 4672,  533, 2448, 2431
18743, 4672, 2448,  533, 2447
18744, 4651, 2458, 2454, 2450
18745, 4598, 4593, 4562, 4735
18746, 4558, 4562, 4598, 4559
18747, 4558, 4561, 2424, 2425
18748, 4558, 4598, 4608, 2425
18749, 4608, 4562, 4681, 4735
18750, 4608, 4598, 4735, 4597
18751, 2442, 2439, 4607, 4520
18752, 2425, 4597, 2412, 4598
18753, 4595, 4598, 4559, 2412
18754, 4602, 4614, 4613, 4603
18755, 4613, 4740, 4604, 4603
18756, 4676, 4680, 4613, 4603
18757, 4647, 4648, 4692, 4618
18758, 2458, 2450, 4650, 2482
18759, 4644, 4614, 4676, 4647
18760, 4644, 4646, 4614, 2601
18761, 4638, 2410, 4503, 4706
18762, 4544, 4638, 4675, 4674
18763, 4635, 4710, 2422, 4711
18764, 4687, 4683, 2453, 2457
18765, 4640, 4707, 4730, 2396
18766, 4505, 4659, 4638, 4503
18767, 4742, 2513, 4659, 2512
18768, 4708, 4675, 4707, 4730
18769, 4554, 4731, 4732, 2586
18770, 4721, 2463,  558, 2524
18771, 4550, 2390, 4551, 4554
18772, 4550, 4552, 4551, 2390
18773, 4553, 4732, 4726, 2581
18774, 4650, 2578,  544, 2573
18775, 4554, 4732, 2581, 2586
18776, 4639, 2520, 4596, 2546
18777,  572, 2546, 2515, 2547
18778, 2546, 2515, 2547, 4639
18779, 4637, 4749, 2384, 2527
18780, 4639, 4534, 4749, 2562
18781, 4639, 4534, 2550, 4596
18782, 4639, 4534, 2562, 2550
18783, 4630, 4668, 4628, 4633
18784, 4721,  566, 2524,   36
18785, 4502, 2475, 2480, 2463
18786, 4729, 2548, 2534, 2382
18787, 4546, 2534, 4729, 2505
18788, 4644, 4645, 2602, 2539
18789, 4630, 4729, 2500, 4633
18790, 4546, 2505, 4729, 2506
18791, 4633, 4729, 4708, 4632
18792, 4708, 2506, 4729, 2501
18793, 4609, 4594, 4532, 4531
18794, 4595, 2399, 4594, 2400
18795, 4594, 4532, 4559, 4606
18796, 4593, 4592, 4597, 4595
18797, 4565, 4568, 4576, 4575
18798, 4576, 4584, 4643, 4575
18799, 4582, 4576, 4568, 4584
18800, 4576, 4643, 2488, 4575
18801, 4588, 2478, 4583, 2467
18802, 2467, 4642, 1145,  213
18803, 4721,  557, 2480,  556
18804, 4643, 4642,  241, 1145
18805, 4642,  565,  241,   18
18806, 4642,  565,   18,  213
18807, 4497, 4622, 4548, 4626
18808, 4548, 4497, 4626, 4498
18809, 4497, 1154, 4499, 1153
18810, 2543, 2490, 2544, 4627
18811, 4548, 2564, 4626, 2544
18812, 4721, 2633,  556, 2480
18813, 4547, 4664, 2528, 2380
18814, 4721, 2638,  556, 2633
18815, 4574, 2444, 4583, 4641
18816, 4707, 4730, 2409, 4704
18817, 4704, 2421, 4711, 4612
18818, 4705, 4708, 2502, 2507
18819, 4653, 2417, 4699, 2430
18820, 4635, 4711, 2422, 2435
18821, 4604,  597, 2610, 2609
18822, 4566, 2503, 4734, 4612
18823, 4612, 2451, 2509, 2504
18824, 4547, 4664, 4549, 2528
18825, 4665, 4664, 2379, 4621
18826, 4497, 4499, 4622, 4500
18827, 4549, 4736, 4499, 1158
18828, 4549, 4736, 4664, 4499
18829, 4621, 4549, 2528, 2552
18830, 2532, 2380, 4631, 4547
18831, 4625, 4664, 2393, 4738
18832, 4676, 4603, 4614, 4646
18833, 4676, 4680, 2616, 4679
18834, 4677, 2557, 4591, 2617
18835, 4645, 4750, 4678, 4646
18836, 4678, 4750, 4741, 4646
18837, 2534,  575, 2500, 2505
18838, 4678, 2611, 4680, 4741
18839, 4678, 2616, 4680, 2611
18840, 2570, 4718, 2571, 4733
18841, 4713, 4712, 2541, 2566
18842, 4718, 2572, 4712, 2577
18843, 4726, 4553, 4718, 4717
18844, 4553, 4718, 2577, 2576
18845, 4560, 4681, 4562, 2629
18846, 4558, 4560, 4563, 4564
18847, 4598, 4559, 4562, 4593
18848, 4562, 4593, 4606, 2625
18849, 4515, 4523, 4617, 4514
18850, 4513, 4516, 4608, 4520
18851, 4713, 1179, 4716, 1174
18852, 4607, 2442, 2470, 2445
18853, 4713, 4717, 4718, 4712
18854, 4746, 4701, 4716, 4717
18855, 4746, 4716, 4620, 4717
18856, 4717, 4701, 4716, 4718
18857, 1178, 1179, 4716, 4714
18858, 1179, 4716, 4714, 4713
18859, 4684, 4689, 2579, 2578
18860, 4685, 2428, 2429, 2441
18861,  538, 2449, 2436, 2446
18862, 4684, 4689, 4744, 2579
18863, 4685, 4684, 4686, 2428
18864, 4540, 4605, 2641, 2642
18865, 4530, 4532, 4537, 4539
18866, 4530, 4539, 4534, 4749
18867, 4540, 4605, 2642, 4596
18868, 4537, 4534, 4540, 4610
18869, 4542, 4606, 4564, 4537
18870, 4537, 4538, 4539, 4532
18871, 4637, 4640, 2542, 4752
18872, 4539, 4749, 2385, 2384
18873, 4513, 2439, 4515, 4520
18874, 4599, 2604, 4524, 2599
18875, 4599, 4524, 4523, 2599
18876, 4600,  597, 4604, 2609
18877, 4600,  597, 2604, 4604
18878, 4600,  598,  597, 2609
18879, 4602, 4613, 4614, 4514
18880, 4602, 4616, 4615, 2594
18881, 4655, 4656, 4615, 4743
18882, 4602, 4617, 4616, 4523
18883, 4660, 1158, 1157, 1152
18884, 4648, 2401, 4618, 4647
18885, 4618, 4743, 2414, 2401
18886, 4618, 2413, 4514, 4647
18887, 4618, 4514, 2413, 2414
18888, 4615, 4618, 4614, 4692
18889, 4614, 4618, 4514, 4647
18890, 4648, 4618, 4743, 4692
18891, 4656, 2415, 2428, 2414
18892, 4654, 4651, 4685, 2429
18893, 4685, 4695, 4654, 2416
18894, 4689, 4744, 4702, 4695
18895, 4651, 4684, 2583, 2578
18896, 4525, 2574, 2573, 2568
18897, 4525, 4526, 2573, 4689
18898, 4684, 2579, 4744, 2584
18899, 4736, 4673, 4665, 4738
18900, 4745, 1166, 4669, 1161
18901, 4664, 4665, 2393, 4738
18902, 4535, 4737, 4728, 4673
18903, 1162, 4737, 1163, 1157
18904, 4580, 2392, 4535, 4578
18905, 4737, 1163, 1157, 4736
18906, 4736, 4665, 4664, 4738
18907, 4510, 4662, 4657, 4658
18908, 4665, 2392, 2393, 4535
18909, 4586, 4661, 4660, 1152
18910, 4624, 4739, 4661, 4567
18911, 4568, 4661, 4584, 4575
18912, 4661, 1152, 4500, 4660
18913, 4643, 4575, 4661, 4739
18914, 4750, 2563, 2612,  593
18915, 4750, 2607, 2545,  579
18916, 4750,   38, 2607,  579
18917, 4750,  594, 4741, 2607
18918, 4750,  594, 2607,   38
18919, 4539, 4638, 2397, 4538
18920, 4539, 4637, 4749, 2384
18921, 4675, 4640, 4638, 4707
18922, 4637, 2384, 4640, 4752
18923, 4546, 2510, 2505, 4674
18924, 4674, 2542, 2510, 4637
18925, 4639, 2550, 2562, 2546
18926, 4637, 4639, 4749, 2527
18927, 4619, 4665, 4621, 4549
18928, 4621, 4590, 2379, 4580
18929, 4590, 2379, 4580, 2378
18930, 4590, 2378, 4579, 2525
18931, 4580, 4665, 4621, 4620
18932, 4621, 4549, 4665, 4664
18933, 4590, 4715, 2554, 2525
18934, 2583, 2477,  546, 2457
18935, 2637, 2632, 4610, 4534
18936, 4609, 4594, 4591, 4593
18937, 4537, 4532, 4609, 4606
18938, 4721,  557, 2463, 2480
18939, 2631, 4610, 4537, 2636
18940, 4606, 4610, 4537, 2631
18941, 4530, 4749, 2535, 2385
18942, 4538, 4536, 4544, 4542
18943, 4536, 4545, 4544, 4541
18944, 4640, 4638, 4707, 2397
18945, 4638, 4707, 4706, 4675
18946, 4544, 4675, 4659, 2512
18947, 4710, 4742, 4503, 4706
18948, 4659, 4658, 2517, 2518
18949, 4724,  536, 2444,  535
18950, 4574, 4724, 4748, 4734
18951, 4574, 4724, 4734, 2444
18952, 4574, 2433, 4724, 2444
18953, 4734,  562, 2455, 2504
18954, 2455, 4725,  536, 4724
18955, 2451, 2455, 4725,  536
18956, 4734, 2444, 4724, 2455
18957, 4734, 4583, 2444, 2465
18958, 4605, 4541, 2641, 4697
18959, 4605,  570, 4596, 2520
18960, 4605,  569, 4697, 2641
18961, 4605,  569, 2641,  570
18962, 4694, 4531, 2386, 4594
18963, 4744, 2580, 2579, 2574
18964, 4594, 4694, 2387, 2386
18965, 4694, 2549, 4591, 2557
18966, 4609, 4594, 4531, 4591
18967, 4533, 4531, 2531, 2556
18968, 4531, 2531,  521, 2386
18969, 4531, 2531, 2529,  521
18970, 4577, 4573, 2493, 2498
18971, 4573, 4734, 2498, 4577
18972, 2544, 4622, 2485, 4626
18973, 4565, 2420, 4574, 4581
18974, 4565, 4575, 4577, 4573
18975, 4729, 4632, 2548, 2382
18976, 4499, 4500, 1153, 4660
18977, 2395, 2394, 4709, 4632
18978, 4571, 4570, 4628, 2394
18979, 4632, 4708, 4730, 4729
18980, 4571, 4632, 4633, 4709
18981, 4630, 2495, 4668, 4633
18982, 2501, 4633, 4729, 4708
18983, 4631, 4548, 4627, 2558
18984,  577, 2543, 2490, 2544
18985, 4631, 4548, 4547, 4625
18986, 4625, 4570, 4738, 2393
18987, 4521, 4519, 4523, 2459
18988, 4519, 2440, 4616, 2453
18989, 4513, 4735, 4516, 4517
18990, 4522, 4516, 4512, 4520
18991,  552, 2613, 2483, 2471
18992, 4589, 4522, 2483, 2608
18993, 2608, 4589, 4522, 4600
18994, 4575, 2492, 4567, 2487
18995, 4575, 4739, 2487, 4567
18996, 4661, 4739, 4575, 4567
18997, 4575, 4567, 2492, 4573
18998, 4584, 1145, 4643, 1146
18999, 4517, 4516, 2619, 4735
19000, 4517, 2619, 4516, 2614
19001, 4517, 4516, 4601, 2614
19002, 4522, 4516, 4682, 2613
19003, 4613, 4517, 2615, 4679
19004, 4682, 4522, 2471, 4520
19005, 4651, 2477, 2458,  545
19006, 2632, 4534, 2637, 2555
19007, 4513, 4517, 4597, 4735
19008, 2613, 2483, 2471, 4522
19009, 2613, 4522, 2471, 4682
19010, 4634, 2593,  548,  547
19011, 2423, 4710, 2422, 4509
19012, 4507, 4658, 4659, 2518
19013, 4507, 4659, 2513, 2518
19014, 4547, 4625, 4664, 2380
19015, 2466,  209,  210, 1165
19016, 4631, 4627, 2530, 2558
19017, 4497, 1153, 4500, 1148
19018, 2528, 2553, 4621, 2552
19019, 4619, 4549, 1164, 1163
19020, 2392, 4664, 2379, 4665
19021, 4665, 4620, 1163, 4619
19022, 4497, 4622, 4626, 4623
19023, 4582, 4673, 2419, 4671
19024, 4673, 4670, 4582, 4586
19025, 4587, 4671, 2419, 2432
19026, 4700, 4669, 4672, 4699
19027, 4587, 4672, 4671, 2431
19028, 4667, 4672, 4587, 2447
19029, 4718, 4712, 4553, 2577
19030, 4666, 4585, 4670, 1155
19031, 4671, 4728, 4673, 2418
19032, 4672, 4671, 2431, 4699
19033, 4550, 4751, 2377, 2536
19034, 4576, 4583, 2494, 2489
19035, 4641, 4583, 4582, 4588
19036, 4582, 4568, 4586, 4585
19037, 4624, 4500, 4661, 1147
19038, 4569, 4660, 4661, 4500
19039, 2443, 2453,  542, 2440
19040, 4550, 4555, 4553, 4552
19041, 4575, 2487, 4739, 2488
19042, 4739, 2488, 2487,  243
19043, 4739, 2488,  243,  242
19044, 4643,  242, 4739, 1146
19045, 4738, 4673, 4660, 4736
19046, 4582, 4671, 4587, 4670
19047, 4723, 4535, 4737, 4728
19048, 4535, 4673, 4728, 2405
19049, 4586, 1157, 4737, 1156
19050, 4522, 4520, 2481, 2471
19051, 4586, 4736, 4737, 1157
19052, 4673, 4581, 4738, 4660
19053, 4586, 4581, 4673, 4660
19054, 4635, 4509, 4508, 2435
19055, 4509, 2422, 2436, 2435
19056, 4515, 4617, 2440, 2427
19057, 4504, 4506, 2437, 2436
19058, 4635, 2508, 2514, 2513
19059, 4742, 2512, 4675, 2507
19060, 4504, 2436, 4509, 4506
19061, 4509, 4635, 4508, 4511
19062, 2464, 2462, 4508, 4511
19063, 4632, 4730, 4709, 2395
19064, 4628, 4570, 4569, 4625
19065, 4497, 4622, 4499, 4548
19066, 4726, 4695, 4551, 4696
19067, 4549, 4499, 4547, 4498
19068, 4571, 4632, 2394, 4628
19069, 4627, 4630, 2490, 4668
19070, 4550, 4552, 2377, 4751
19071, 2394, 4709, 4632, 4571
19072, 4575, 4573, 2492, 2493
19073, 4624, 4500, 1147, 1148
19074, 4622, 2491, 4572, 4668
19075, 4623, 4624, 1148, 4500
19076, 2449, 2436, 2446, 4722
19077, 4561, 2437, 4506, 2424
19078, 4558, 4608, 4598, 4562
19079, 4560, 4518, 4611, 4504
19080, 4505, 4657, 4611, 4542
19081, 4551, 2404, 2390, 2391
19082, 4505, 4503, 4538, 4564
19083, 4560, 4518, 4504, 4561
19084, 4536, 4537, 4539, 4534
19085, 4563, 4611, 4542, 4564
19086, 2637, 2555,  588, 2632
19087, 4520, 2443, 2481, 2442
19088, 4544, 4541, 4545, 4658
19089, 4542, 4505, 4564, 4611
19090, 4622, 4572, 4628, 4668
19091, 4519, 2484, 2443, 2453
19092, 4661, 1147, 4500, 1152
19093, 4500, 1153, 4660, 1152
19094, 4499, 4738, 4570, 4660
19095, 4582, 4584, 4585, 4588
19096, 4622, 4548, 4625, 4499
19097, 4722, 2449, 2436, 2437
19098, 4622, 4569, 4500, 4499
19099, 4669, 4670, 1161, 1160
19100, 4510, 4507, 2518, 4658
19101, 4510, 4721, 4663, 2524
19102, 4511, 4510, 2519, 2463
19103, 2638, 4663, 2633, 4721
19104, 4721, 4663, 2524,  566
19105, 4663, 2633, 4721, 4502
19106, 4518, 4611, 2634, 2629
19107, 4722, 2468, 4502, 2475
19108, 4608, 4598, 4597, 2425
19109, 4517, 4593, 2620, 4679
19110, 4735, 2620, 4593, 2625
19111, 4517, 4593, 4679, 4597
19112, 2618, 4681, 2619, 4516
19113, 4681, 2619, 4516, 4735
19114, 4602, 4514, 4618, 4617
19115, 4519, 4617, 4523, 4616
19116, 4602, 4617, 4523, 4514
19117, 4613, 4513, 4597, 4514
19118, 4515, 2426, 4514, 2427
19119, 4617, 2440, 4656, 4616
19120, 4640, 4546, 2542, 4752
19121, 4725,  536,  537, 2451
19122, 2542, 4640, 4674, 4546
19123, 4544, 4545, 2516, 2517
19124, 2633, 4663, 2639, 4657
19125, 4618, 4743, 4656, 2414
19126, 4657, 4541, 2640, 2635
19127, 4542, 4657, 2635, 4541
19128, 4505, 4657, 4541, 4658
19129, 4609, 2632, 4610, 2631
19130, 4510, 4663, 4662, 2523
19131, 4662, 4697, 4541, 4658
19132, 4662, 4541, 4657, 4658
19133, 1174, 4715, 4620, 4716
19134, 4720, 2437,  539, 2449
19135, 4727, 4552, 4578, 2391
19136, 4746, 4727, 4717, 4620
19137, 4620, 4727, 4717, 4578
19138, 4528, 4733, 4701, 2570
19139, 4718, 4726, 4717, 4701
19140, 4726, 4553, 4717, 4552
19141, 4715, 2566,  251, 2554
19142, 4524, 2604, 2598, 2599
19143, 4527, 4746, 4716, 1172
19144, 2519, 2463,  558,  559
19145, 4511, 4510, 4507, 2519
19146, 4501, 4722, 4502, 2475
19147, 4662, 2639, 4657, 2640
19148, 4662, 2640, 4541, 4697
19149, 4536, 4541, 4605, 4545
19150, 4605, 4541, 4697, 4545
19151, 4532, 4606, 4564, 4559
19152, 4532, 2398, 4559, 4564
19153, 4530, 2531, 2535, 2555
19154, 4649, 2400, 4594, 2387
19155, 4694, 4594, 4591, 4531
19156, 4594, 4559, 4532, 2399
19157, 4497, 4500, 4622, 4623
19158, 4532, 4559, 2398, 2399
19159, 4613, 4680, 4679, 2615
19160, 4680, 2616, 4679, 2615
19161, 4740, 4646, 4741, 2606
19162, 4678, 4680, 4646, 4741
19163, 4740, 4680, 2611, 4741
19164, 4676, 4649, 4647, 4592
19165, 4512, 4602, 4523, 4514
19166, 4676, 4646, 4680, 4603
19167, 4723, 4535, 4727, 4578
19168, 2405, 4727, 2404, 4728
19169, 2391, 4727, 2404, 2405
19170, 4703, 4728, 4696, 4746
19171, 1162, 4745, 4723, 4737
19172, 4671, 2418, 4673, 2419
19173, 4698, 4745, 1166, 4669
19174, 4578, 4723, 4580, 4620
19175, 4590, 4619, 2554, 4620
19176, 4721,   36,  558,  557
19177, 1174,  251, 1169, 4620
19178, 4713, 4718, 4717, 4716
19179, 4594, 2399, 4532, 2386
19180, 4591, 4679, 4593, 4592
19181, 4609, 2626, 4591, 2627
19182, 4649, 4594, 4694, 2387
19183, 4592, 4593, 4594, 4595
19184, 4609, 4530, 4537, 4533
19185, 4720, 2449,  539, 2445
19186, 4506, 2437, 2436, 2423
19187, 4747, 4561, 4720, 4681
19188, 4555, 2540, 4712, 2526
19189, 4726, 4551, 4732, 4553
19190, 4555, 4553, 4552, 4712
19191, 4540, 2642, 2641, 2636
19192, 4579, 4715, 4717, 4578
19193, 4557, 4554, 2389, 2377
19194, 4551, 4552, 2391, 2390
19195, 4551, 4727, 2391, 4552
19196, 4632, 4709, 4708, 4633
19197, 4674, 2505, 2511, 2510
19198, 2395, 4709, 4704, 4730
19199, 2408, 4709, 4704, 2395
19200, 4729, 2500, 2505, 2534
19201, 4546, 2382, 2534, 2383
19202, 4610, 2637, 2631, 2632
19203, 4630, 4729, 4632, 2548
19204, 2481, 4521, 4589, 2459
19205, 4602, 2594, 4523, 4616
19206, 4518, 2628,  555, 2469
19207, 4618, 2414, 4656, 2427
19208, 4519, 2443, 4515, 2440
19209, 4519, 2593, 4523, 2459
19210, 4634, 4616, 4656, 2440
19211, 4656, 2414, 4743, 2415
19212, 4716, 1177, 1172, 1178
19213, 4582, 4581, 2420, 2419
19214, 4576, 2493, 4575, 2488
19215, 4704, 4566, 2408, 2421
19216, 4566, 4709, 2408, 2407
19217, 2449,  539, 2436, 2437
19218, 4675, 4674, 2506, 2511
19219, 4565, 4571, 4566, 2407
19220, 4705, 4573, 2502, 4709
19221, 4705, 4573, 2503, 2502
19222, 4704, 2395, 2409, 2408
19223, 4734, 2504, 2498, 2499
19224, 4734, 2503, 2498, 2504
19225, 4572, 4571, 4633, 4573
19226, 4642,   18,  241, 1145
19227, 2497, 2502, 4573, 4633
19228, 4737, 1156, 4670, 4586
19229, 4508,  537, 2446, 2464
19230, 4571, 2394, 4709, 2407
19231, 2502, 4573, 4633, 4709
19232, 4705, 4566, 4612, 2503
19233, 4565, 4577, 4566, 4573
19234, 2503, 4734, 2498, 4573
19235, 2627, 2556, 4609, 2632
19236, 4594, 4606, 4559, 4593
19237, 4558, 4562, 4561, 4608
19238, 4704, 2422, 2408, 2409
19239, 4576, 2488, 2494, 2493
19240, 4563, 4542, 4606, 4564
19241, 4562, 4559, 4606, 4593
19242, 4642,  213,   18, 1145
19243, 4609, 4606, 2626, 2631
19244, 4543, 4540, 4596, 4605
19245, 4530, 4531, 4533, 4609
19246, 4536, 4543, 4639, 4539
19247, 4540, 4534, 4639, 4596
19248, 4558, 4561, 2425, 4608
19249, 4598, 4593, 4735, 4597
19250, 4595, 4598, 4597, 4593
19251, 4559, 4564, 2398, 2411
19252, 4595, 4559, 4594, 2399
19253, 4563, 4606, 4559, 4564
19254, 4609, 2631, 4610, 4606
19255, 4517, 4735, 2620, 4593
19256, 4593, 4679, 2621, 2620
19257, 4536, 4543, 4605, 4540
19258, 4540, 4543, 4639, 4536
19259, 4532, 4564, 4538, 2398
19260, 4538, 2411, 4564, 2410
19261, 4537, 4540, 2636, 4610
19262, 4538, 4564, 2411, 2398
19263, 4540, 4596, 2642, 2637
19264, 4540, 4541, 2636, 2641
19265, 2550, 2637,  587, 4596
19266, 4510, 2524, 2523, 2518
19267, 4596, 2642,  587,   37
19268, 4543, 2520, 4639, 2515
19269, 4536, 4537, 4534, 4540
19270, 4530, 4532, 4539, 2385
19271, 4596, 4534, 2637, 4540
19272, 4511, 4635, 2464, 2514
19273, 4613, 4517, 4679, 4597
19274, 4513, 4520, 4608, 2439
19275, 4513, 4515, 2426, 4514
19276, 4597, 4592, 4647, 2413
19277, 4676, 4647, 4613, 4592
19278, 4666, 1155, 1160,  211
19279, 4750, 4741, 4646, 2607
19280, 4644, 4648, 4692, 4647
19281, 4676, 4592, 4613, 4679
19282, 4740, 4646, 2606, 4603
19283, 4613, 4601, 2609, 2614
19284, 4649, 4694, 4691, 2387
19285, 4530, 4532, 2385, 2386
19286, 4505, 4510, 4657, 4658
19287, 4562, 4735, 4593, 2625
19288, 4676, 4614, 4613, 4647
19289, 4676, 2617, 4591, 2616
19290, 4676, 4679, 4591, 4592
19291, 4694, 2561, 2529, 2557
19292, 4613, 4597, 4592, 4647
19293, 4676, 4678, 4680, 4646
19294, 4597, 4514, 2413, 4647
19295, 4591, 2622, 2617, 2557
19296, 4604, 4601, 2609, 4613
19297, 4613, 4514, 4597, 4647
19298, 4517, 2615, 4679, 2620
19299, 4655, 4731, 4732, 4743
19300, 4727, 4723, 4620, 4746
19301, 2594, 4616, 4615, 2589
19302, 4688, 4690, 4731, 4648
19303, 4602, 2599, 4523, 2594
19304, 4618, 4617, 2427, 4656
19305, 4731, 4743, 2591, 4692
19306, 4656, 2414, 2428, 2427
19307, 4648, 2402, 4731, 4743
19308, 4602, 4514, 4614, 4618
19309, 4743, 2591, 4692, 2590
19310, 4655, 2584, 4684, 4744
19311, 4655, 2428, 4684, 4656
19312, 4589, 2459, 2460, 2481
19313, 4683, 4656, 2428, 2441
19314, 4640, 2396, 4730, 2383
19315, 4640, 2383, 2397, 2396
19316, 4674, 2511, 2516, 2510
19317, 4640, 2383, 2384, 2397
19318, 4637, 2542, 2510, 2547
19319, 4752,  524,  523, 2384
19320, 4752,  524, 2527,  523
19321, 2534, 4752,  524, 2542
19322, 2383, 4752,  524, 2534
19323, 4618, 4647, 2414, 2413
19324, 4513, 4608, 4735, 4597
19325, 4512, 4515, 4514, 4523
19326, 4519, 4520, 4515, 2443
19327, 4613, 4517, 4601, 2614
19328, 4558, 4559, 4598, 2412
19329, 4614, 4603, 2600, 2601
19330, 4649, 4592, 2400, 4647
19331, 4649, 4648, 4647, 2401
19332, 4622, 4572, 2491, 4567
19333, 4497, 1149, 4626, 1154
19334, 4622, 4569, 4567, 4500
19335, 4622, 2486, 4567, 2491
19336, 4626,  247, 1154, 1149
19337, 4626,  245, 2485,   19
19338, 4569, 4625, 4622, 4628
19339, 4626,  246,   19,  578
19340, 4626, 2564,  247,  246
19341, 4626,  246, 1149,  245
19342, 4626, 2544,  578, 2485
19343, 4503, 2410, 4506, 2423
19344, 4537, 4564, 4542, 4538
19345, 4658, 4545, 2517, 2522
19346, 4510, 2518, 4507, 2519
19347, 4611, 2634, 4657, 2633
19348, 4505, 4538, 4542, 4564
19349, 4742, 4675, 4659, 4706
19350, 4511, 4502, 4510, 2463
19351, 4686, 4655, 4743, 2415
19352, 4539, 4544, 4638, 4538
19353, 4601, 2614, 4516, 2613
19354, 4501, 4504, 4722, 4509
19355, 4520, 4516, 4682, 4522
19356, 4554, 2389, 2377, 2390
19357, 4543, 2515, 4674, 2516
19358, 4625, 4628, 4570, 2394
19359, 4599, 4600, 4524, 2604
19360, 4519, 4617, 4616, 2440
19361, 4520, 2443, 2442,  541
19362, 4562, 4735, 2625, 2624
19363, 4608, 4597, 2426, 2425
19364, 4520,  541, 2439, 2443
19365, 4662, 4697, 4658, 2522
19366, 4541, 2641, 4697, 2640
19367, 4662, 2640, 4697,  568
19368, 4605, 2521, 4697,  569
19369, 4697, 2640,  569,  568
19370, 4631, 4625, 2381, 4628
19371, 4682, 4520, 2471, 2442
19372, 4506, 4561, 4560, 4504
19373, 4518, 4720, 2469, 2468
19374, 4518, 2628, 2634, 2633
19375, 4502, 2468, 4722, 4504
19376, 4508, 2446,  538, 2436
19377, 4747, 4561, 2424, 2437
19378, 4572, 4567, 2492, 2491
19379, 4734, 2498, 4577, 2499
19380, 4582, 4587, 2432, 4641
19381, 4582, 4641, 2432, 2433
19382, 4582, 4586, 4670, 4585
19383, 4505, 4542, 4541, 4657
19384, 4582, 4581, 4574, 2420
19385, 4686, 2403, 4551, 4695
19386, 4541, 4542, 4505, 4544
19387, 2580, 4732, 4726, 4744
19388, 4689, 4702, 4744, 2574
19389, 4689, 2574, 4744, 2579
19390, 4744, 4732, 2585, 2580
19391, 4615, 4618, 4656, 4617
19392, 4615, 2595, 2589, 2590
19393, 4618, 2427, 4514, 2414
19394, 4613, 4599, 4604, 4601
19395, 4683, 2440, 2441, 2453
19396, 4634, 4656, 4616, 2588
19397, 4656, 2589, 4616, 2588
19398, 4676, 4677, 4694, 4591
19399, 4708, 2506, 4675, 4730
19400, 4708, 2501, 2507, 2506
19401, 4638, 4675, 4706, 4659
19402, 4705, 2508, 2502, 2503
19403, 4570, 4581, 4738, 2406
19404, 4633, 2495, 2501, 2500
19405, 4708, 4729, 2506, 4730
19406, 4566, 2421, 2407, 2408
19407, 4573, 2497, 2503, 2502
19408, 4565, 4570, 2407, 4581
19409, 4692, 4647, 4614, 4644
19410, 4644, 4614, 4692, 2596
19411, 4707, 4705, 4706, 4675
19412, 4678, 4741, 4750, 2612
19413, 4741,  595, 2612, 2611
19414,  251, 1169, 4620,  250
19415, 4646, 4603, 2601, 2606
19416, 4741,  594, 2612,  595
19417, 4750, 2612, 4741,  594
19418, 4547, 2532, 2380, 2528
19419, 4568, 4581, 4586, 4660
19420, 4586, 1151, 4661, 1152
19421, 4576, 4583, 4577, 2494
19422, 4624, 4567, 2486, 2487
19423, 4572, 4573, 2497, 2492
19424, 4723, 4620, 1168, 1163
19425, 4571, 4709, 4633, 4573
19426, 4565, 4571, 2407, 4570
19427, 4570, 4581, 2406, 2407
19428, 4736, 1157, 4660, 1158
19429, 4619, 4665, 4549, 1163
19430, 4642,  565, 2489,  241
19431, 4525, 4527, 4529, 4693
19432, 4655, 4744, 4732, 2585
19433, 2610,  596,  597, 4604
19434, 4686, 2403, 4695, 2416
19435, 4611, 2633, 4657, 4663
19436, 4611, 2635, 4657, 2634
19437, 4662, 4663, 4657, 2639
19438, 4541, 4658, 4697, 4545
19439, 4544, 2517, 2511, 2512
19440, 4544, 4659, 2517, 2512
19441, 4638, 4538, 2410, 2397
19442, 2550, 2555,  588, 2637
19443, 4698, 4703, 1166, 4745
19444, 2475, 2462, 2463, 4502
19445, 4688, 2560, 2538, 2537
19446, 4642, 2461,  565,  213
19447, 4690, 2538,   33, 2537
19448, 4556,  583, 2536, 2538
19449,  583, 4688,  582, 2538
19450, 4550, 2377, 4557, 2536
19451, 4582, 2420, 4574, 2433
19452, 4698, 1165, 1171, 4719
19453, 4671, 4699, 2418, 2431
19454, 4673, 4728, 2405, 2418
19455, 4506, 4564, 4561, 2424
19456, 2550, 4596, 4534, 2637
19457, 4541, 2635, 2636, 2641
19458, 4573, 2497, 2492, 2498
19459, 4658, 2523, 2517, 2518
19460, 4518, 4561, 4681, 4720
19461, 4509, 2423, 2436, 2422
19462, 4558, 2424, 2411, 2425
19463, 4727, 4717, 4578, 4552
19464, 4562, 2630, 2629, 2624
19465, 4724,  536, 2433, 2434
19466, 4745, 4737, 1162, 1161
19467, 4618, 2427, 4617, 4514
19468, 4723, 4728, 4745, 4746
19469, 4665, 4723, 4620, 4580
19470, 4578, 4723, 4620, 4727
19471, 4703, 4745, 4728, 4746
19472, 4745, 1161, 1162, 1167
19473, 4736, 4499, 4738, 4664
19474, 4535, 4578, 2392, 2391
19475, 4696, 4726, 4746, 4727
19476, 4726, 4746, 4727, 4717
19477, 4590,  528, 2379, 2525
19478, 4715, 4580, 4579, 4590
19479, 4690, 2537,   33,  519
19480, 4506, 2424, 2423, 2410
19481, 4687, 2429,  531, 2441
19482, 2447,  533, 2431,  534
19483, 1173, 4746, 4716, 4620
19484, 4715, 4620, 4717, 4578
19485, 4535, 4727, 4578, 2391
19486, 4654, 2430, 2416, 2417
19487, 4613, 2610, 4680, 2615
19488, 2528, 4621,  528, 2380
19489, 4512, 4599, 4524, 4523
19490, 4719, 1171, 1170, 1165
19491, 4523, 4616, 2594, 2593
19492, 2532, 2381,  527,  526
19493, 4595, 4592, 4597, 2413
19494, 4735, 2624, 4681, 2619
19495, 4724, 2433,  535, 2444
19496, 4533, 2555, 4534, 2632
19497, 4595, 2413, 2412, 2399
19498, 4735, 2625, 2619, 2620
19499, 4662, 2522, 4658, 2523
19500, 4721,  558, 2463,  557
19501, 4642, 2467, 2461,  213
19502, 4663,  566, 2638,  567
19503, 4500, 1152, 1147, 1153
19504, 4582, 2419, 2433, 2432
19505, 4641, 2478, 2452, 2444
19506, 4662, 4663,  567, 2523
19507, 4657, 2634, 2639, 2633
19508, 2445, 4747, 2437, 4720
19509, 4658, 2522, 4697, 4545
19510, 4546, 4675, 2506, 4730
19511, 4503, 4509, 2423, 4506
19512, 2411, 2424, 4564, 2410
19513, 2628, 4518, 2629, 4681
19514, 4584, 1151, 4585, 1150
19515, 4526, 4653, 4652, 4693
19516, 4586, 1152, 4660, 1157
19517, 4586, 4737, 4673, 4670
19518, 4605, 2642, 4596,  570
19519, 4723, 4727, 4728, 4746
19520, 4673, 4738, 4581, 2406
19521, 4535, 4665, 4737, 4673
19522, 4575, 2493, 2487, 2488
19523, 4575, 2487, 2493, 2492
19524, 4625, 2394, 4570, 2393
19525, 4723, 4745, 1167, 4746
19526, 4655, 2585, 4732, 2586
19527, 4651, 4654, 4684, 4689
19528, 4582, 2432, 4587, 2419
19529, 4583, 4582, 4588, 4584
19530, 4737, 1156, 1157, 1162
19531, 4586, 4568, 4661, 4585
19532, 2448,  533,  532, 2430
19533, 4673, 4660, 4736, 4586
19534, 4697, 4545, 2522, 2521
19535, 4577, 2498, 2493, 2499
19536, 4586, 4660, 4736, 1157
19537, 4641,  535, 2433, 2444
19538, 4501, 2462, 2446, 2475
19539, 4583, 2444, 2465, 2478
19540, 4671, 4673, 4670, 4582
19541, 4699, 2417, 4728, 2418
19542, 2529, 2387,  521,  520
19543, 4600, 4601, 2609, 4604
19544, 4497, 1148, 1154, 1153
19545, 4574, 4734, 4583, 2444
19546, 4547, 2558, 2551, 2564
19547, 4645, 2607, 2602, 2545
19548, 2393, 4535, 4738, 4665
19549, 4644, 4676, 4614, 4646
19550, 4514, 2413, 2414, 2427
19551, 4692, 2595, 4614, 4615
19552, 4644, 4614, 2596, 2601
19553, 4579, 2526, 2525,  529
19554, 4603, 2605, 2600, 2606
19555, 4665, 4664, 2393, 2392
19556, 4614, 2595, 2601, 2600
19557, 4547, 2551, 2558, 2532
19558, 4602, 4615, 2595, 2594
19559, 4676, 4603, 4613, 4614
19560, 2554, 4715, 4620,  251
19561, 4743, 2415, 2401, 2402
19562, 4747, 4561, 2425, 2424
19563, 2390, 4732, 4686, 4551
19564, 4566, 2421, 2420, 2407
19565, 4655, 4656, 2415, 2428
19566, 4650, 4689, 4651, 2578
19567, 4690, 2389, 4648, 2388
19568, 4691, 2533, 2388, 2387
19569, 2610, 4613, 4604, 2609
19570, 4639, 2546, 2562, 2547
19571, 4726, 2580, 4744, 4702
19572, 2581, 2580, 4732, 4726
19573, 4550, 2567, 4556, 4555
19574, 4688, 4731, 4690, 4557
19575, 4551, 2403, 2390, 2404
19576, 4555, 2526, 2567, 2540
19577, 4701, 4696, 4746, 4527
19578, 1163, 4620, 1168, 1169
19579, 4579, 2565, 2525, 2526
19580, 4551, 2390, 2403, 4686
19581, 4716, 1174, 1179, 1173
19582, 4718, 2576, 2571, 2577
19583, 4714, 2572, 4718, 2571
19584, 4557, 2377,   33, 2536
19585, 4555, 4712, 4579, 2526
19586, 2526, 4751, 2536,  530
19587, 4520, 4519, 4521, 2481
19588, 4550, 4751, 2536, 2526
19589, 2377, 2378,  530, 4751
19590, 4740, 4680, 4741, 4646
19591, 2378, 2525, 2379,  529
19592, 4720, 2445,  539, 2437
19593, 4518, 4502, 2480, 2633
19594, 4601, 2608, 4600, 2609
19595, 4669, 1160, 1161, 1166
19596, 4499, 1159, 1153, 1154
19597, 4666, 4670, 1160, 1155
19598, 4714, 4733, 4716, 1178
19599, 4712,  585, 2541, 2540
19600, 4622, 2491, 2490, 2485
19601, 4578, 4715, 4580, 4579
19602, 4553, 2577, 2582, 2576
19603, 4732, 2586, 2580, 2581
19604, 1173, 1167, 1172, 4746
19605, 4595, 2399, 2400, 2413
19606, 4620,  250, 2554,  251
19607, 2481, 4520, 4522, 4521
19608, 4512, 4521, 4524, 4522
19609, 4723, 1168, 4746, 1167
19610, 4681, 2618, 2619, 2624
19611, 4751,  529, 2378,  530
19612, 4624, 2487, 2486,  244
19613, 4726, 2575, 4701, 2576
19614, 4736, 4499, 4660, 4738
19615, 4715, 2525, 2565, 2554
19616, 4701, 2570, 2576, 2575
19617, 4631, 2532, 2381, 2380
19618, 4726, 4553, 2576, 4718
19619, 4716, 4715, 4620, 4717
19620, 4629, 2382, 2381,  526
19621, 4556, 2587, 4554, 2582
19622,  540, 4747, 2437, 2445
19623, 4498, 4549, 1159, 2551
19624, 4623, 4626,  245, 2485
19625, 4552, 2390, 2377, 2391
19626, 2389, 4557, 2377,   33
19627, 4705, 2508, 2507, 2502
19628, 4620, 4716, 1173, 1174
19629, 4740,  595,  596, 2605
19630, 2547, 2515,  573, 2510
19631, 4620, 1168, 1169, 1174
19632, 4709, 4708, 4704, 4730
19633, 4532, 2399, 2398, 2385
19634, 4620, 1168, 1174, 1173
19635, 4620, 1173, 4746, 1168
19636, 4510, 2524, 2519, 2463
19637, 4579, 2565, 4715, 2525
19638, 2504,  561,  562, 2451
19639, 4637, 4639, 2527, 2547
19640, 4668, 2491, 2496, 2490
19641, 4623,  244,  245, 1149
19642,  541, 2439, 2442, 4520
19643, 4506, 2423, 2424, 2437
19644, 4590, 4579, 4715, 2525
19645, 4622, 4627, 4668, 4628
19646, 4724, 4748, 4734, 4711
19647, 4579, 4552, 4717, 4712
19648, 2380, 4621,  528, 2379
19649, 4580, 2379, 2392, 2378
19650, 2392, 4664, 2393, 2379
19651, 4639, 2562, 2527, 2547
19652, 2534, 2382,  525, 2383
19653, 4635, 4509, 2435, 2422
19654, 4612, 4635, 2451, 4711
19655, 2446, 2464, 2462, 4508
19656, 4589, 4600,  598, 2603
19657,  251, 4715, 4620, 1174
19658, 4752, 2384,  523, 2527
19659, 4579, 4712, 4715, 2565
19660, 4726, 2581, 2580, 2575
19661, 4620, 4665, 4621, 4619
19662, 4729, 2500, 2506, 2505
19663, 4580, 2392, 2391, 2378
19664, 4635, 4507, 4742, 2513
19665, 2384,  523, 4749, 2385
19666, 4713, 4714,  253, 2572
19667, 2534, 2382, 2548,  525
19668, 4508, 4509, 2446, 2436
19669, 4538, 2398, 2411, 2397
19670, 2546, 2520,  572, 2515
19671, 4518, 2628, 2629, 2634
19672, 4590, 2528, 2525, 2553
19673, 4723, 4535, 4728, 4727
19674, 4635, 4710, 4509, 2422
19675, 4542, 4541, 2635, 2636
19676, 4539, 2385, 4532, 2398
19677, 4562, 4735, 2624, 4681
19678, 4747, 4608, 4561, 4681
19679, 2632, 2627, 2556,  589
19680, 2632,  588,  589, 2555
19681, 4542, 2631, 2636, 2630
19682, 4537, 4533, 4534, 4610
19683, 4606, 4563, 2630, 2631
19684, 4635, 4710, 2508, 4742
19685, 4635, 2514, 2509, 2464
19686, 4562, 2624, 2625, 2630
19687, 4562, 2629, 4681, 2624
19688, 4563, 2629, 2630, 2635
19689, 4502, 2475, 2468, 2480
19690, 4609, 4593, 4591, 2626
19691, 4563, 2635, 2634, 2629
19692, 4518,  556, 2480, 2468
19693, 4591, 2621, 4593, 4679
19694, 2631, 4606, 2625, 2630
19695, 4657, 4611, 4663, 4510
19696, 4591, 2627, 2626, 2621
19697, 2627, 2622, 2549,  590
19698, 2529, 2386,  521, 2387
19699, 4609, 4594, 4606, 4532
19700, 4510, 2523, 4658, 2518
19701, 4593, 2620, 2621, 2626
19702, 4692, 2595, 2590, 2596
19703, 4533, 2555,  589, 2556
19704, 4531, 2556, 2549, 2531
19705, 4677, 4694, 4645, 4676
19706, 2628, 2623,  554, 2469
19707, 2533, 2388, 2387,  520
19708, 2533, 2387, 2529,  520
19709, 4591, 4593, 2621, 2626
19710, 4681, 2624, 2629, 2623
19711, 4526, 4529, 2568, 4636
19712, 4595, 4559, 2399, 2412
19713, 4513, 2426, 4515, 2439
19714, 4735, 2625, 2624, 2619
19715, 4720, 2445, 2468, 2449
19716, 4682, 2470, 2471,  553
19717, 4681, 2623, 2628, 2469
19718, 2533,  519, 2388,  520
19719, 4725, 2435, 4508,  537
19720, 4558, 4564, 2411, 2424
19721, 4505, 4507, 4659, 4503
19722, 4591, 2621, 2622, 2627
19723, 4591, 2616, 2617, 2622
19724, 4609, 2632, 2626, 2627
19725, 4557, 4731, 4556, 4688
19726, 4542, 2636, 2635, 2630
19727, 4594, 2386, 2387, 2400
19728, 4591, 2622, 2621, 2616
19729, 4517, 4597, 4735, 4593
19730, 4581, 2419, 2406, 2420
19731, 4652, 4696, 4695, 4702
19732, 4513, 4608, 4597, 2426
19733, 4591, 2549, 2622, 2557
19734, 2627,  590, 2549, 2556
19735, 4524, 4600, 2603, 2604
19736, 4747, 4607, 2445,  540
19737, 4712,  585, 2572, 2541
19738, 2529, 4531, 2386, 4694
19739, 4670, 1156, 1161, 1155
19740, 2596, 4692, 2595, 4614
19741, 4554, 4731, 2586, 2587
19742, 4723, 1168, 4620, 4746
19743, 4692, 4648, 4644, 4688
19744, 4688, 4690, 2537, 2538
19745, 4682,  552, 2613, 2618
19746, 2623, 2470,  554, 2469
19747, 4644, 4646, 2601, 2602
19748, 4535, 2392, 2406, 2405
19749, 4594, 2400, 2399, 2386
19750, 4549, 1158, 4499, 1159
19751, 4720, 2469, 2468, 2445
19752, 4595, 4593, 4594, 4559
19753, 4624, 4739, 4567, 2487
19754, 4624,  244,  243, 2487
19755, 4678, 4741, 2612, 2611
19756, 4678, 2611, 2612, 2617
19757, 2617, 2612, 2563,  592
19758, 4625, 2393, 2380, 2394
19759, 4512, 4599, 4523, 4602
19760, 4709, 2408, 2407, 2394
19761, 4632, 2394, 2381, 2395
19762, 4632, 4730, 2395, 2382
19763, 2622, 2549,  590,  591
19764, 4599, 2605, 2604, 2599
19765, 4679, 2621, 2620, 2615
19766, 2622,  591, 2557, 2549
19767, 2544, 2485, 2490,  578
19768, 4592, 4647, 2413, 2400
19769, 4608, 2438, 2425, 2439
19770, 4547, 4625, 4548, 4499
19771, 4517, 2614, 2620, 2619
19772, 4640, 2383, 4546, 4752
19773, 4633, 2502, 2496, 2497
19774, 4730, 2409, 2395, 2396
19775, 4682, 2623,  553, 2618
19776, 4539, 2385, 2398, 2384
19777, 4679, 4593, 4592, 4597
19778, 2410, 4707, 4706, 4638
19779, 4546, 2506, 4674, 2505
19780, 4708, 2501, 2502, 2507
19781, 4609, 4591, 2549, 2627
19782, 4505, 4544, 4659, 4658
19783, 2613, 2608,  551, 2483
19784, 4711, 4635, 4508, 2435
19785, 4676, 2617, 4677, 4591
19786, 4517, 2620, 2614, 2615
19787, 4559, 2412, 2411, 2398
19788, 4591, 2627, 2622, 2549
19789, 2402, 4732, 4554, 4731
19790, 4740, 4603, 4680, 4646
19791, 4578, 4620, 4580, 4715
19792, 4590, 2379, 2378, 2525
19793, 4686, 2403, 2415, 2402
19794, 4645, 4750, 2607, 2545
19795, 4740, 2606, 4741,  595
19796, 4585, 4568, 4661, 4584
19797, 4648, 2402, 2401, 2388
19798, 2602, 2545,  579,  580
19799, 4649, 2400, 2387, 2401
19800, 4740, 2610,  596, 2611
19801, 4552, 2391, 2377, 2378
19802, 4750, 2612,  594,  593
19803, 4527, 4703, 4746, 1172
19804, 4728, 4535, 2405, 4727
19805, 4703, 1167, 1172, 1166
19806, 4744, 4684, 4695, 4689
19807, 4725, 4711, 2435, 2434
19808, 4636,  543,   17, 2568
19809, 4734, 2504, 4612, 2503
19810, 4613, 2615, 2609, 2610
19811, 2608, 2476, 2483, 4589
19812, 2608,  598,   35, 2476
19813, 4613, 4740, 4680, 2610
19814, 4725, 2434, 2435,  537
19815, 4651, 2458, 2477, 2454
19816, 4678, 2617, 2612, 2563
19817, 4741,  595, 2606,  594
19818, 4580, 4578, 2378, 2391
19819, 4740,  595, 2605, 2606
19820, 4741,  594, 2606, 2607
19821, 4676, 4591, 4679, 2616
19822, 4608, 2439, 2425, 2426
19823, 4607, 4516, 4608, 4681
19824, 4709, 2408, 2394, 2395
19825,  532, 2430, 2429, 2450
19826, 4666, 1155,  212, 1150
19827, 4589,  598, 2608, 2476
19828, 4625, 4664, 2380, 2393
19829, 4499, 1158, 4660, 1153
19830, 4570, 2406, 2393, 2407
19831, 4570, 2394, 2407, 2393
19832, 4589,  598,  550, 2603
19833, 4581, 2420, 2406, 2407
19834, 4646, 2607, 2601, 2602
19835, 4508, 2464, 2451,  537
19836, 4646, 2606, 2601, 2607
19837, 4750,  594,   38,  593
19838, 2451, 4635, 4508, 4711
19839, 4588, 2452, 4587, 4641
19840, 4645, 4677, 4678, 2545
19841,  592, 2563, 2617, 2557
19842, 4725,  536, 4724, 2434
19843, 4539, 4639, 4534, 4749
19844, 4614, 4646, 4603, 2601
19845, 4750,  579,  593,   38
19846, 4519, 2453, 4616, 2484
19847, 4633, 2495, 2496, 2501
19848,  596, 4604, 2605, 2604
19849, 4538, 2410, 2397, 2411
19850, 4543, 2516, 4544, 4545
19851, 4740, 4604, 4603, 2605
19852, 4516, 4682, 4607, 4520
19853, 4681, 2470, 2623, 2469
19854, 2483, 2613,  552,  551
19855, 4682, 2470, 2442, 2471
19856, 4599, 4604, 4600, 2604
19857, 4601, 2608, 2609, 2614
19858, 4524, 2604, 2603, 2598
19859, 4597, 4514, 2426, 2413
19860, 4644, 2602, 2601, 2596
19861, 2545, 4677, 4678, 2563
19862, 4644, 4688, 4691, 2597
19863, 4646, 2607, 4741, 2606
19864, 2602, 2597, 2539,  580
19865, 4677, 2545, 2561, 2563
19866, 4618, 4647, 2401, 2414
19867, 4647, 2414, 2413, 2400
19868, 4750,  593,  579, 2545
19869, 4515, 2427, 2440, 2426
19870, 4740, 4604,  596, 2610
19871, 4513, 4597, 4514, 2426
19872, 4703, 1166, 1172, 1171
19873, 4602, 2600, 2594, 2595
19874, 4599, 4603, 4613, 4604
19875, 4634, 2588, 4616, 2593
19876, 4523, 2593, 2594, 2599
19877, 4649, 4648, 2401, 2388
19878, 4602, 2600, 2599, 2594
19879, 4688, 2592, 2560, 2597
19880, 4677, 4694, 4591, 2557
19881, 4750,  593, 2545, 2563
19882, 4691, 2539, 2560, 2537
19883, 4645, 2539, 2561, 2545
19884, 4616, 4615, 2589, 4656
19885, 4609, 2626, 4606, 4593
19886, 4615, 2590, 4692, 2595
19887, 4558, 4561, 4560, 4564
19888, 4686, 4684, 4655, 2428
19889, 4615, 4743, 4618, 4692
19890, 4651, 4683, 2583, 4684
19891, 2597, 2592, 2560,  581
19892, 4601, 2614, 2613, 2608
19893, 4514, 2426, 2413, 2427
19894, 4700, 2482, 2448, 2474
19895, 4673, 2419, 2418, 2405
19896, 4699, 2418, 2431, 2417
19897, 4719,  209, 1170,  208
19898, 4582, 4585, 4670, 4587
19899, 4678, 2612, 4750, 2563
19900, 4613, 4513, 4517, 4597
19901, 4529,  256, 4528, 2569
19902, 4704, 2422, 2421, 2408
19903, 4737, 1161, 1156, 1162
19904, 4616, 2588, 2589, 2594
19905, 4686, 2428, 4655, 2415
19906, 4571, 4709, 4566, 2407
19907, 4519, 2481, 2443, 2459
19908, 4576, 2489, 2494, 2488
19909, 4671, 2432, 2431, 2418
19910, 4634,  547, 2588, 2593
19911, 4634, 4616, 2453, 2484
19912, 4519, 2484, 2593, 2459
19913, 2593, 2598, 2459,  548
19914, 4688, 2538, 4556, 4557
19915, 2592, 2587, 4688,  582
19916, 4569, 4500, 4499, 4660
19917, 2597,  581, 2539,  580
19918, 4706, 2423, 2422, 2409
19919, 4655, 2586, 2591, 2585
19920, 2597,  581, 2560, 2539
19921, 4734, 4711, 2455, 4724
19922, 4644, 2596, 2597, 2602
19923, 4584, 4661, 1151, 1146
19924, 2454, 2450,  531, 2429
19925, 4655, 2590, 2589, 2584
19926, 4747, 2437, 2424, 2438
19927, 4596,   37,  571,  570
19928, 4616, 2588, 2594, 2593
19929, 4634, 2457, 2583,  546
19930, 4655, 2584, 2585, 2590
19931, 4606, 4593, 2626, 2625
19932, 4511, 2514,  560,  559
19933, 4619, 1163, 1164, 1169
19934, 4558, 4563, 4560, 4562
19935, 4686, 2428, 2415, 2416
19936, 4655, 4744, 2585, 2584
19937, 2628, 2469,  554,  555
19938, 4724,  536,  535, 2433
19939, 4688, 4692, 4731, 2592
19940, 4595, 4597, 4598, 2412
19941, 4747, 4561, 4608, 2425
19942, 4633, 2501, 2496, 2502
19943, 4655, 2589, 4684, 2584
19944, 4550, 2526, 2536, 2567
19945, 4556, 2587, 2582,  583
19946, 2538, 4556,  583, 4688
19947, 2576, 4718, 2571, 2570
19948, 2402, 4732, 4686, 2390
19949, 2477,  545, 4651, 2583
19950, 4747, 4607,  540, 2438
19951, 4553, 2582, 2581, 2576
19952, 4555, 2577,  584, 2582
19953, 4617, 2427, 4656, 2440
19954, 4743, 2415, 2414, 2401
19955, 4695, 2403, 2404, 2417
19956, 4686, 2416, 2415, 2403
19957, 4685, 2428, 2416, 2429
19958, 4653, 4654, 2417, 2430
19959, 4684, 2588, 2583, 2589
19960, 4621, 4664, 2380, 2528
19961, 4590, 2525, 2554, 2553
19962, 4527, 1170, 4529, 4693
19963, 4744, 2585, 2584, 2579
19964, 4634,  546,  547, 2457
19965, 4634, 2453, 4683, 2457
19966, 4695, 4696, 2417, 2404
19967, 4651, 2477, 2457, 2454
19968, 4726, 2576, 2581, 2575
19969, 4579,  529, 2378, 4751
19970, 4523, 2593, 2599, 2598
19971, 4552, 2378, 2377, 4751
19972, 2509,  560,  561, 2464
19973, 4672, 2431, 2447,  533
19974, 4684, 2578, 2584, 2583
19975, 4712, 2565, 2540, 2541
19976, 2434, 4725, 4711, 4724
19977, 4527, 1172, 4716, 1177
19978, 4648, 2388, 2389, 2402
19979, 4518, 2628, 2633,  555
19980, 4745, 4671, 4699, 4728
19981, 4554, 2581, 2582, 2587
19982, 4654, 2429, 2416, 2430
19983, 4726, 4701, 4718, 2576
19984, 4556,  583,  584, 2567
19985, 4650, 4689, 2578, 2573
19986, 4652, 4654, 4689, 4695
19987,  532,  531, 2450, 2429
19988, 4573, 2493, 2498, 2492
19989, 2452, 2432,  535,  534
19990, 2432,  534, 4587, 2431
19991, 4525, 2568, 2569, 2574
19992, 2551, 4549, 1159, 2552
19993, 4526, 2568, 2573,  543
19994, 4584, 1150, 1145, 1151
19995, 2574, 2575, 4702, 2580
19996, 4725, 2434,  537,  536
19997, 4518, 4681, 2628, 2469
19998, 2451, 4711, 2455, 4612
19999, 4553, 4718, 4717, 4712
20000, 4583, 2461, 2478, 2465
20001, 4525, 4528, 4527, 4701
20002, 2449,  539,  538, 2436
20003, 4718, 2577, 2571, 2572
20004, 4714,  254,  253, 2572
20005, 4712, 2565, 2526, 2540
20006, 2389, 4554, 2402, 2390
20007, 4699, 2417, 2431, 2430
20008, 4711, 2421, 2435, 2434
20009, 4585, 1150, 1156, 1155
20010, 4713, 4718, 2572, 4712
20011, 2572, 2559,  586,  253
20012, 2577, 4712,  585, 2572
20013, 4555, 2577,  585,  584
20014, 4733, 1178,  254, 1177
20015, 4731, 2592, 2591, 2586
20016, 4667, 2466, 2447, 2473
20017, 4527, 4528, 1177, 4701
20018, 4534, 2555, 2562, 2550
20019, 4692, 2592, 2597, 2591
20020, 4558, 2412, 2425, 2411
20021, 2617,  591,  592, 2557
20022, 4666, 1155,  211,  212
20023, 4512, 4524, 4599, 4601
20024, 2470, 2623,  553, 4682
20025, 4516, 2614, 2619, 2613
20026, 4636, 2479, 1170,  208
20027, 4749, 2535, 2562, 2555
20028, 4733,  255,  254, 2571
20029, 2623, 4681, 4682, 2470
20030, 4732, 2580, 2586, 2585
20031, 4526,  543,  544, 2456
20032, 2413, 4597, 2412, 2426
20033, 4520, 2471, 2442, 2481
20034, 4525, 4652, 4701, 4527
20035, 4655, 2591, 4743, 2590
20036, 4676, 4649, 4591, 4694
20037, 4649, 2387, 2388, 2401
20038, 2438,  540,  541, 2442
20039, 4526, 2456, 4636,  543
20040, 4634, 2457,  547, 2453
20041, 4525, 4702, 4652, 4689
20042, 4719, 1170, 4527, 4693
20043, 4634, 2457, 4683, 2583
20044, 4515, 2443, 2439, 2440
20045, 4656, 2427, 2428, 2441
20046, 4636,  207,   17,  543
20047, 4744, 2579, 2580, 2585
20048, 4701, 4702, 2574, 2575
20049, 4641, 2433,  535, 2432
20050, 4688, 4691, 2560, 2537
20051, 2607, 2602, 2545,  579
20052, 4528, 2570, 2569,  256
20053, 4609, 4594, 4593, 4606
20054, 4679, 2616, 2621, 2615
20055, 4519, 2443, 2484, 2459
20056, 4656, 2440, 2427, 2441
20057, 4687,  531,   34, 2441
20058, 4609, 2627, 2549, 2556
20059, 4692, 2596, 2590, 2591
20060, 4537, 4532, 4564, 4538
20061, 4752,  524, 2384, 2383
20062, 4731, 4554, 2402, 2389
20063, 4667, 4671, 4669, 4670
20064,  533, 2431, 2430, 2448
20065, 4749, 2535, 2527, 2562
20066, 4701, 4726, 4717, 4746
20067, 4737, 4671, 4673, 4670
20068, 4637, 2547, 2510, 2515
20069, 4637, 2547, 2527, 2542
20070, 4667, 1165, 2466,  210
20071, 4530, 2385, 4539, 4749
20072, 4619, 4549, 2552, 1164
20073, 4549, 1159, 2552, 1164
20074, 4549, 2528, 2552, 2551
20075, 4550, 4552, 2390, 2377
20076,  586,  253, 2559,   20
20077, 4713, 1179, 2559,  253
20078, 2593, 2484,  548, 2459
20079, 4550, 4555, 4579, 2526
20080, 4713, 2541, 2572, 2559
20081,  529, 2526, 4751, 4579
20082, 4716, 1178, 1172, 1173
20083, 4650, 2458, 4651, 2450
20084, 4574, 4748, 2420, 4566
20085, 4565, 4581, 2407, 2420
20086, 4572, 2496, 2491, 2497
20087, 4527, 1171, 4703, 1172
20088, 2393, 2380, 2379, 4664
20089, 4535, 2392, 2393, 2406
20090, 4556, 2536,  583, 2567
20091,  530, 2536, 2377, 4751
20092, 4713, 2559, 2566, 2541
20093, 2494,  563,  564, 2465
20094, 4690, 4648, 4691, 2388
20095, 4691, 2539, 2537, 2533
20096, 4516, 2619, 2618, 2613
20097, 4691, 2539, 2533, 2561
20098, 4644, 2539, 2602, 2597
20099, 4509, 4506, 2436, 2423
20100, 4508,  538,  537, 2435
20101, 4685, 4684, 4654, 4695
20102, 4726, 4702, 4701, 2575
20103, 4690, 4557, 2389,   33
20104, 4688, 2560,  582, 2538
20105, 4539, 4638, 4637, 4640
20106, 2437, 2445,  539,  540
20107, 4689, 2579, 2573, 2574
20108, 4530, 4534, 4537, 4533
20109, 4543, 2520, 4605, 4596
20110, 4684, 2584, 2578, 2579
20111, 4690, 2388, 4691,  519
20112, 4691, 2597, 2560, 2539
20113, 4519, 4520, 2443, 2481
20114, 4677, 4678, 2563, 2617
20115, 4692, 2591, 2597, 2596
20116, 4614, 2595, 2596, 2601
20117, 4644, 4649, 4645, 4691
20118, 2453,   34,  542, 2440
20119, 4685, 2416, 4686, 4695
20120, 4747, 4720, 2445, 4681
20121, 4722, 2475, 2449, 2468
20122, 4681, 4682, 4607, 4516
20123, 4589, 2598, 4524, 2603
20124, 4680, 2610, 2611, 2616
20125, 2587, 4688,  582,  583
20126, 4666, 2472,  211, 2473
20127, 2443,  541, 2439,  542
20128, 4557, 2538, 2536,   33
20129, 4602, 4615, 4614, 2595
20130, 4689, 2579, 2578, 2573
20131, 2592, 2560,  581,  582
20132, 4690,  519, 2389, 2388
20133, 4684, 2589, 2583, 2584
20134, 4643, 1145,  241, 1146
20135, 4661, 1146, 1152, 1151
20136, 2489,  565, 2461,  564
20137, 4553, 4717, 4552, 4712
20138, 4724, 2455, 2444,  536
20139, 2540,  585, 4555, 4712
20140, 4733, 4716, 1178, 1177
20141, 4584, 4588, 1150, 4585
20142, 4615, 2594, 2589, 2595
20143, 4583,  564, 2461, 2465
20144, 4744, 2580, 2574, 4702
20145, 4551, 4727, 4696, 2404
20146, 4556, 4557, 2538, 2536
20147, 4666, 2447, 2472, 2473
20148, 4715, 2554, 2565, 2566
20149, 2572, 2541,  586, 2559
20150, 4671, 2419, 2432, 2418
20151, 4624, 4739,  243, 1147
20152, 4745, 1167, 1166, 1161
20153, 4661, 1152, 1146, 1147
20154, 4653, 4700, 2430, 4699
20155, 4712, 2565, 2541, 2566
20156, 4713, 2566, 1179, 1174
20157, 1179, 2559, 2566, 4713
20158, 4568, 4661, 4575, 4567
20159, 4624, 1148, 1147,  243
20160, 4527, 4746, 4703, 4696
20161, 4619, 2552,  249, 1164
20162, 4739, 1146,  242, 1147
20163, 4590, 2525, 2528,  528
20164, 4627, 2558, 4548, 2544
20165, 4549, 4736, 1158, 1163
20166, 4619,  250, 1169, 1164
20167, 4716, 1173, 1179, 1178
20168, 4547, 4625, 4499, 4664
20169, 4661, 4739, 1147, 1146
20170, 4567, 2492, 2491, 2486
20171, 4739, 1147,  242,  243
20172, 4719, 4669, 4698, 1165
20173, 4728, 2404, 2418, 2417
20174, 4652, 4527, 4703, 4696
20175, 4726, 4701, 4696, 4746
20176, 4579, 4712, 2565, 2526
20177, 4723, 1168, 1162, 1163
20178, 4497, 1154, 1148, 1149
20179, 4714,  254, 2572, 2571
20180,  528, 2528, 2380,  527
20181, 2485, 2544, 2490, 4622
20182, 4583, 2461, 2467, 2478
20183, 4728, 2405, 2418, 2404
20184, 4619, 2553, 2554,  250
20185, 4622, 4625, 4627, 4628
20186, 4631, 2532,  526, 2381
20187, 4728, 4696, 2404, 2417
20188, 4625, 2380, 2381, 2394
20189, 4626, 2485,  578,   19
20190, 4626,   19,  246,  245
20191, 4498,  247,  248, 1154
20192, 4525, 4528, 4701, 2569
20193, 4627, 2543, 2558, 2544
20194, 4625, 4570, 4569, 4499
20195, 4568, 4661, 4569, 4660
20196, 4626, 2544, 2564,  246
20197, 4626,  247, 4498, 1154
20198, 4527, 1177, 4528, 1176
20199, 4547, 2532, 2528, 2551
20200, 4548, 2544, 2558, 2564
20201, 4668, 2496, 2495, 2490
20202, 4664, 4549, 4499, 4547
20203, 4661, 4585, 1151, 4586
20204, 4731, 2587, 2592, 2586
20205,  212,  213, 2467, 1150
20206, 4631, 2558, 2530, 2532
20207, 4627, 2543, 2530, 2558
20208,  534, 4587, 2431, 2447
20209, 4629, 4627, 2530, 4631
20210, 4630, 2543,  576, 2548
20211, 4589, 2460,  550, 2476
20212, 4582, 2419, 2420, 2433
20213, 4570, 4581, 4660, 4738
20214, 4667, 4669, 1160, 4670
20215,   35, 2476,  598,  550
20216, 4629, 2530, 2548,  525
20217, 2564, 4626,  247, 4498
20218, 4695, 4652, 4653, 4696
20219, 4581, 4569, 4570, 4660
20220, 4630, 2548, 2530, 2543
20221, 4626, 4498, 2564, 4548
20222, 4584, 4642, 1145, 2467
20223, 4695, 2416, 2403, 2417
20224, 4630, 2490, 4668, 2495
20225, 4626,  246,  247, 1149
20226, 4729, 2534, 2548, 2500
20227, 4622, 4668, 2490, 2491
20228,  530, 2526, 4751,  529
20229, 4501, 4722, 2475, 2446
20230, 4630, 4729, 2548, 2500
20231, 4622, 4572, 4569, 4628
20232, 2544, 2490, 4622, 4627
20233, 4630, 2495, 2500,  576
20234, 4632, 4730, 4708, 4709
20235, 4666, 4667, 4670, 4587
20236, 4550, 4579, 4552, 4751
20237, 4698, 4696, 4703, 4699
20238, 2548, 2500, 2534,  575
20239, 2431, 4700, 2430, 2448
20240, 2542, 2547,  573, 2510
20241, 4710, 4503, 2423, 4706
20242, 4540, 4610, 2637, 2636
20243,  588, 2550, 2637,  587
20244, 4596, 2546, 2520,  571
20245, 4586, 4670, 4585, 1156
20246, 4543, 4545, 4605, 2521
20247, 4745, 4669, 4671, 4670
20248, 4666,  210,  211, 1160
20249, 4543, 4639, 4637, 2515
20250, 4660, 1152, 1153, 1158
20251, 2406, 4535, 4738, 2393
20252, 4670, 1155, 1161, 1160
20253, 4708, 2507, 4675, 2506
20254, 4596,   37,  587,  571
20255, 4639, 2546, 2515, 2520
20256, 4499, 1153, 1159, 1158
20257, 4586, 1157, 1156, 1151
20258, 1161, 4737, 1156, 4670
20259, 4640, 4730, 4546, 2383
20260, 4666, 4587, 4588, 2472
20261,  529, 2525, 2379,  528
20262, 4657, 2634, 2640, 2639
20263,  527, 2528, 2380, 2532
20264, 4535, 2406, 4673, 2405
20265, 2542, 4546, 2534, 4752
20266, 4580, 4578, 2391, 2392
20267, 4637, 4752, 2527, 2384
20268, 4546, 2542, 2510, 4674
20269, 1159, 2551,  248, 4498
20270, 4640, 4752, 2384, 2383
20271,  523, 4749, 2385, 2535
20272, 4708, 4633, 2502, 2501
20273, 4518, 2633,  556,  555
20274, 2379, 4665, 4580, 2392
20275, 4531, 2531, 2549, 2529
20276,  522, 4530, 2386, 2531
20277, 4591, 4679, 2616, 2621
20278, 4531, 2386,  521, 2529
20279, 2622, 2617, 2557,  591
20280, 4584, 4643, 4575, 4661
20281, 2430, 2450, 2448, 4653
20282, 4681, 2624, 2623, 2618
20283, 2612,  593, 2563,  592
20284, 4539, 4749, 4637, 4639
20285, 4532, 2386, 2399, 2385
20286, 4694, 2557, 2529, 2549
20287, 4596,  571,  587, 2546
20288, 4551, 2404, 4695, 2403
20289, 4605, 2521,  569, 2520
20290, 2386,  521,  522, 2531
20291, 4723, 1162, 4737, 1163
20292, 4652, 4698, 4527, 4693
20293, 4736, 1158, 1163, 1157
20294, 4726, 4744, 4695, 4702
20295, 4669, 1166, 1165, 1160
20296, 2385,  522, 4530, 2386
20297, 4673, 2405, 2406, 2419
20298, 4653, 4698, 4693, 4700
20299, 2630, 2629, 4563, 4562
20300, 4621, 2528, 4590, 2553
20301, 4549, 1159, 1164, 1158
20302, 4723, 4665, 4620, 1163
20303, 2552, 2551,  248, 1159
20304, 2552, 1164, 1159,  249
20305, 4740, 4603, 2606, 2605
20306, 4677, 2561, 2557, 2563
20307, 4678, 2611, 2617, 2616
20308, 4726, 4701, 4702, 4696
20309, 4536, 4542, 2636, 4541
20310, 2552,  249, 1159,  248
20311, 4663, 2638, 2639,  567
20312, 4619,  249, 2552, 2553
20313, 4621, 2528, 4549, 4664
20314, 4663,  567, 2523,  566
20315, 4721, 2638,  566,  557
20316, 4662,  568,  567, 2639
20317, 4663,  566, 2523, 2524
20318, 4662, 2640,  568, 2639
20319, 4698, 4703, 4527, 1171
20320, 4719, 1165, 1170,  209
20321, 4596, 2642, 2637,  587
20322, 4605,  570, 2520,  569
20323, 4574, 2444, 4641, 2433
20324, 4533, 2556, 2531, 2555
20325, 4700, 2466, 2474, 2448
20326, 4540, 2637, 2642, 2636
20327, 4697,  568, 2521, 2522
20328, 4504, 4503, 4506, 4509
20329, 4662, 2523,  567, 2522
20330, 4721,  566,   36,  557
20331, 2424, 4564, 2410, 4506
20332, 4720, 2445, 4681, 2469
20333, 4657, 2634, 2635, 2640
20334, 4545, 2521, 2516, 2522
20335, 4554, 2587, 2586, 2581
20336, 4543, 2520, 2515, 2521
20337, 4719, 4693, 4700, 2474
20338, 4697, 2521,  568,  569
20339, 4703, 4728, 4699, 4696
20340, 4747, 2438, 2424, 2425
20341, 4718, 4701, 2570, 2576
20342, 4680, 2615, 2610, 2616
20343, 4706, 2409, 2410, 2423
20344, 1145, 2467, 1150, 4584
20345, 4510, 2518, 2519, 2524
20346, 4552, 2378, 4578, 2391
20347, 2519,  558, 2463, 2524
20348, 4511, 4501, 4502, 2462
20349, 4703, 1166, 4745, 1167
20350, 4511, 2514,  559, 2519
20351, 2554, 4590, 4620, 4715
20352, 4659, 2512, 2513, 2518
20353, 4619,  249,  250, 1164
20354, 4522, 2483, 2608, 2613
20355, 4536, 4605, 4543, 4545
20356, 4564, 4503, 4538, 2410
20357, 4543, 2516, 2521, 2515
20358, 4544, 2511, 4675, 2512
20359, 4559, 2412, 2398, 2399
20360, 4511, 4507, 2514, 2519
20361, 4707, 2396, 2410, 2409
20362, 4726, 4695, 4696, 4702
20363, 4544, 4658, 4545, 2517
20364, 2547, 2515,  572,  573
20365, 4674, 2515, 2510, 2516
20366, 4682, 2618,  553,  552
20367, 4527, 4701, 4716, 4746
20368, 2429, 2430, 4654, 2450
20369, 4527, 4701, 1177, 4716
20370, 4636, 1175,  208, 1170
20371, 4508, 2435, 4509, 2436
20372, 4710, 4705, 4612, 2508
20373, 4723, 1168, 1167, 1162
20374, 4699, 4696, 4728, 2417
20375, 4726, 2575, 2580, 4702
20376, 4702, 4701, 4652, 4696
20377, 4578, 4580, 4723, 4535
20378, 2638, 2633, 4663, 2639
20379, 4745, 1161, 4669, 4670
20380, 4563, 4542, 2635, 2630
20381, 2514, 2509, 2464,  560
20382, 4726, 2576, 4553, 2581
20383, 4594, 4531, 2386, 4532
20384, 4746, 1168, 1173, 1167
20385, 4635, 2513, 4742, 2508
20386, 4535, 4665, 4673, 4738
20387,  252, 1179, 2559, 2566
20388, 4544, 2511, 2517, 2516
20389, 4659, 2512, 2518, 2517
20390, 4713, 4712, 2572, 2541
20391, 4640, 4707, 2396, 2397
20392, 4529, 1176, 1175, 1170
20393, 4639, 2546, 4596, 2550
20394, 4675, 2512, 2506, 2507
20395, 4528, 2570, 4701, 2569
20396, 4705, 4709, 4566, 4573
20397, 4742, 2513, 2507, 2508
20398, 2546,  571,  572, 2520
20399, 4546, 2382, 4729, 2534
20400, 2542, 2510,  573,  574
20401, 2555, 4534, 2637, 2550
20402, 2627, 2556,  589,  590
20403, 4637, 4752, 2542, 2527
20404, 4626, 4548, 2544, 4622
20405, 4555,  584, 2540, 2567
20406, 4705, 4708, 4709, 2502
20407, 4636,  208, 1175,  207
20408, 4612, 2504, 2509, 2503
20409, 4635, 2514, 2508, 2509
20410, 4507, 2513, 2514, 2519
20411, 4659, 4658, 4507, 4505
20412, 4719, 2466, 4669, 1165
20413, 2509, 4612, 4635, 2451
20414, 2509, 2504, 2451,  561
20415, 4542, 4536, 2636, 4537
20416, 4527, 1176, 1171, 1177
20417, 4550, 4556, 2567, 2536
20418, 4742, 2507, 2513, 2512
20419, 4674, 4675, 4640, 4638
20420, 4511, 2514, 2464,  560
20421, 4716, 1172, 4746, 1173
20422, 4707, 4730, 2396, 2409
20423, 4674, 2511, 2505, 2506
20424, 2566, 1174,  251,  252
20425, 4650,  545, 2458,  544
20426, 4529,  256,  257, 1175
20427, 4715, 1174,  251, 2566
20428, 2534,  574,  575, 2505
20429, 4600, 2609, 2608,  598
20430, 4596,  570, 2642,   37
20431, 4528, 4733,  255, 1177
20432, 4704, 4566, 4709, 2408
20433, 4612, 2509, 2508, 2503
20434, 2566, 4712, 4715, 4713
20435, 4711, 2421, 2422, 2435
20436, 4705, 2503, 4612, 2508
20437, 2504, 2499, 4734,  562
20438, 4675, 2512, 2511, 2506
20439, 4635, 4710, 4742, 4509
20440, 2494, 4577, 2499, 4583
20441, 4573, 2497, 2498, 2503
20442, 4632, 2381, 2382, 2395
20443, 4729, 4633, 2501, 2500
20444, 2410, 4638, 4503, 4538
20445, 4671, 2418, 4699, 4728
20446, 4527, 1172, 1177, 1171
20447, 2505, 2542,  574, 2510
20448, 4528, 1176, 1177,  255
20449, 4539, 2398, 2397, 2384
20450, 4586, 1157, 1151, 1152
20451, 4630,  575,  576, 2500
20452, 4752, 2542, 2527,  524
20453, 4630, 4633, 2500, 2495
20454, 4574, 4748, 4566, 4734
20455, 4701, 2569, 2570, 2575
20456, 2509,  561, 2451, 2464
20457, 4577, 4573, 4575, 2493
20458, 2494, 4583, 2499, 2465
20459, 2504,  562, 2455, 2451
20460, 4599, 4604, 2604, 2605
20461, 2450, 2448, 4653, 2482
20462, 4528,  255, 2570,  256
20463, 4576, 4642, 4583, 2489
20464, 4734, 2455, 2465, 2444
20465, 4572, 2492, 4567, 4573
20466, 4714, 1179,  253, 1178
20467, 4752, 4546, 2534, 2383
20468, 4630, 2543,  577,  576
20469, 4747, 4608, 2438, 2425
20470, 4729, 2500, 2501, 2506
20471, 4587, 2447, 2452, 2472
20472, 4587, 4641, 2452, 2432
20473, 4651, 2450, 2454, 2429
20474, 2559,  252,   20, 1179
20475, 4748, 2420, 2434, 2433
20476, 2461,  564, 4583, 2489
20477, 4577, 2493, 2494, 2499
20478, 4673, 2406, 4581, 2419
20479, 4734, 2455,  563, 2465
20480, 2559,  253, 1179,   20
20481,  562, 2499, 4734,  563
20482, 4574, 4748, 2433, 2420
20483, 4599, 4602, 2600, 2599
20484, 4584, 1146, 4643, 4661
20485, 4500, 1153, 1147, 1148
20486, 4748, 2434, 4724, 2433
20487, 4636,  257,   17,  207
20488, 4529, 1170, 4527, 1176
20489, 4622, 4548, 2544, 4627
20490, 2450, 4654, 4650, 4653
20491, 4622, 4626, 4623, 2485
20492,  210, 1160, 4667, 1165
20493, 4625, 4628, 2394, 2381
20494, 4719, 2479,  208, 1170
20495, 4669, 1165, 2466, 4667
20496, 4730, 2396, 2395, 2382
20497,  596,  597, 4604, 2604
20498, 2544, 2490,  577,  578
20499,  525, 2383,  524, 2534
20500, 4698, 1165, 4669, 1166
20501, 4546, 4730, 4640, 4675
20502, 1175, 4636, 4529, 1170
20503, 4654, 4695, 2417, 2416
20504, 4622, 4624, 4567, 2486
20505, 4730, 2383, 2396, 2382
20506, 4693, 2474, 2479, 2482
20507, 2477, 2583,  546,  545
20508, 4572, 2491, 2492, 2497
20509, 4653, 4700, 2448, 2430
20510, 4643,  242, 2489, 2488
20511, 4669, 4671, 4672, 4699
20512, 1165,  209, 4719, 2466
20513, 4707, 2410, 2396, 2397
20514, 4643, 4575, 4739, 2488
20515, 4576, 2488, 4643, 2489
20516, 4672, 2448, 2447, 2466
20517, 4643,  242,  241, 2489
20518, 4576, 4577, 2493, 2494
20519, 4588, 2467, 1150,  212
20520, 4666, 1150, 4588, 4585
20521, 4583, 2499, 2465, 4734
20522, 4588, 2467, 2472, 2478
20523, 4642, 2489,  565, 2461
20524, 4623, 2485,  245, 2486
20525, 4623,  244, 1149, 1148
20526, 4567, 2487, 2492, 2486
20527, 4622, 2491, 2485, 2486
*Elset, elset=_TO_Specimen-1_ALL_ELEMENTS, internal, generate
     1,  20527,      1
*Nset, nset=FrozenUpperPin
   11,   12,   13,   14,   27,   28,   29,   30,   31,   32,  143,  144,  145,  146,  147,  148
  149,  150,  151,  152,  153,  154,  155,  156,  157,  158,  159,  160,  161,  162,  163,  164
  165,  166,  439,  440,  441,  442,  443,  444,  445,  446,  447,  448,  449,  450,  451,  452
  453,  454,  455,  456,  457,  458,  459,  460,  461,  462,  463,  464,  465,  466,  467,  468
  469,  470,  471,  472,  473,  474,  475,  476,  477,  478,  479,  480,  481,  482,  483,  484
  485,  486,  487,  488,  489,  490,  491,  492,  493,  494,  495,  496,  497,  498,  499,  500
  501,  502,  503,  504,  505,  506,  507,  508,  509,  510,  511,  512,  513,  514,  515,  516
  517,  518,  900,  901,  902,  903,  904,  905,  906,  907,  908,  909,  910,  911,  912,  913
  914,  915,  916,  917,  918,  919,  920,  921,  922,  923,  924,  925,  926,  927,  928,  929
  930,  931,  932,  933,  934, 2111, 2112, 2113, 2114, 2115, 2116, 2117, 2118, 2119, 2120, 2121
 2122, 2123, 2124, 2125, 2126, 2127, 2128, 2129, 2130, 2131, 2132, 2133, 2134, 2135, 2136, 2137
 2138, 2139, 2140, 2141, 2142, 2143, 2144, 2145, 2146, 2147, 2148, 2149, 2150, 2151, 2152, 2153
 2154, 2155, 2156, 2157, 2158, 2159, 2160, 2161, 2162, 2163, 2164, 2165, 2166, 2167, 2168, 2169
 2170, 2171, 2172, 2173, 2174, 2175, 2176, 2177, 2178, 2179, 2180, 2181, 2182, 2183, 2184, 2185
 2186, 2187, 2188, 2189, 2190, 2191, 2192, 2193, 2194, 2195, 2196, 2197, 2198, 2199, 2200, 2201
 2202, 2203, 2204, 2205, 2206, 2207, 2208, 2209, 2210, 2211, 2212, 2213, 2214, 2215, 2216, 2217
 2218, 2219, 2220, 2221, 2222, 2223, 2224, 2225, 2226, 2227, 2228, 2229, 2230, 2231, 2232, 2233
 2234, 2235, 2236, 2237, 2238, 2239, 2240, 2241, 2242, 2243, 2244, 2245, 2246, 2247, 2248, 2249
 2250, 2251, 2252, 2253, 2254, 2255, 2256, 2257, 2258, 2259, 2260, 2261, 2262, 2263, 2264, 2265
 2266, 2267, 2268, 2269, 2270, 2271, 2272, 2273, 2274, 2275, 2276, 2277, 2278, 2279, 2280, 2281
 2282, 2283, 2284, 2285, 2286, 2287, 2288, 2289, 2290, 2291, 2292, 2293, 2294, 2295, 2296, 2297
 2298, 2299, 2300, 2301, 2302, 2303, 2304, 2305, 2306, 2307, 2308, 2309, 2310, 2311, 2312, 2313
 2314, 2315, 2316, 2317, 2318, 2319, 2320, 2321, 2322, 2323, 2324, 2325, 2326, 2327, 2328, 2329
 2330, 2331, 2332, 2333, 2334, 2335, 2336, 2337, 2338, 2339, 2340, 2341, 2342, 2343, 2344, 2345
 2346, 2347, 2348, 2349, 2350, 2351, 2352, 2353, 2354, 2355, 2356, 2357, 2358, 2359, 2360, 2361
 2362, 2363, 2364, 2365, 2366, 2367, 2368, 2369, 2370, 2371, 2372, 2373, 2374, 2375, 2376, 4232
 4233, 4234, 4235, 4236, 4237, 4238, 4239, 4240, 4241, 4242, 4243, 4244, 4245, 4246, 4247, 4248
 4249, 4250, 4251, 4252, 4253, 4254, 4255, 4256, 4257, 4258, 4259, 4260, 4261, 4262, 4263, 4264
 4265, 4266, 4267, 4268, 4269, 4270, 4271, 4272, 4273, 4274, 4275, 4276, 4277, 4278, 4279, 4280
 4281, 4282, 4283, 4284, 4285, 4286, 4287, 4288, 4289, 4290, 4291, 4292, 4293, 4294, 4295, 4296
 4297, 4298, 4299, 4300, 4301, 4302, 4303, 4304, 4305, 4306, 4307, 4308, 4309, 4310, 4311, 4312
 4313, 4314, 4315, 4316, 4317, 4318, 4319, 4320, 4321, 4322, 4323, 4324, 4325, 4326, 4327, 4328
 4329, 4330, 4331, 4332, 4333, 4334, 4335, 4336, 4337, 4338, 4339, 4340, 4341, 4342, 4343, 4344
 4345, 4346, 4347, 4348, 4349, 4350, 4351, 4352, 4353, 4354, 4355, 4356, 4357, 4358, 4359, 4360
 4361, 4362, 4363, 4364, 4365, 4366, 4367, 4368, 4369, 4370, 4371, 4372, 4373, 4374, 4375, 4376
 4377, 4378, 4379, 4380, 4381, 4382, 4383, 4384, 4385, 4386, 4387, 4388, 4389, 4390, 4391, 4392
 4393, 4394, 4395, 4396, 4397, 4398, 4399, 4400, 4401, 4402, 4403, 4404, 4405, 4406, 4407, 4408
 4409, 4410, 4411, 4412, 4413, 4414, 4415, 4416, 4417, 4418, 4419, 4420, 4421, 4422, 4423, 4424
 4425, 4426, 4427, 4428, 4429, 4430, 4431, 4432, 4433, 4434, 4435, 4436, 4437, 4438, 4439, 4440
 4441, 4442, 4443, 4444, 4445, 4446, 4447, 4448, 4449, 4450, 4451, 4452, 4453, 4454, 4455, 4456
 4457, 4458, 4459, 4460, 4461, 4462, 4463, 4464, 4465, 4466, 4467, 4468, 4469, 4470, 4471, 4472
 4473, 4474, 4475, 4476, 4477, 4478, 4479, 4480, 4481, 4482, 4483, 4484, 4485, 4486, 4487, 4488
 4489, 4490, 4491, 4492, 4493, 4494, 4495, 4496
*Elset, elset=FrozenUpperPin, generate
 15108,  17841,      1
*Nset, nset=FrozenLowerLeftPin
    1,    2,    3,    4,    5,    6,    7,    8,    9,   10,   39,   40,   41,   42,   43,   44
   45,   46,   47,   48,   49,   50,   51,   52,   53,   54,   55,   56,   57,   58,   59,   60
   61,   62,   63,   64,   65,   66,   67,   68,   69,   70,   71,   72,   73,   74,   75,   76
   77,   78,   79,   80,   81,   82,   83,   84,   85,   86,   87,   88,   89,   90,   91,   92
   93,   94,   95,   96,   97,   98,   99,  100,  101,  102,  103,  104,  105,  106,  107,  108
  109,  110,  111,  112,  113,  114,  115,  116,  117,  118,  119,  120,  121,  122,  123,  124
  125,  126,  127,  128,  129,  130,  131,  132,  133,  134,  135,  136,  137,  138,  139,  140
  141,  142,  599,  600,  601,  602,  603,  604,  605,  606,  607,  608,  609,  610,  611,  612
  613,  614,  615,  616,  617,  618,  619,  620,  621,  622,  623,  624,  625,  626,  627,  628
  629,  630,  631,  632,  633,  634,  635,  636,  637,  638,  639,  640,  641,  642,  643,  644
  645,  646,  647,  648,  649,  650,  651,  652,  653,  654,  655,  656,  657,  658,  659,  660
  661,  662,  663,  664,  665,  666,  667,  668,  669,  670,  671,  672,  673,  674,  675,  676
  677,  678,  679,  680,  681,  682,  683,  684,  685,  686,  687,  688,  689,  690,  691,  692
  693,  694,  695,  696,  697,  698,  699,  700,  701,  702,  703,  704,  705,  706,  707,  708
  709,  710,  711,  712,  713,  714,  715,  716,  717,  718,  719,  720,  721,  722,  723,  724
  725,  726,  727,  728,  729,  730,  731,  732,  733,  734,  735,  736,  737,  738,  739,  740
  741,  742,  743,  744,  745,  746,  747,  748,  749,  750,  751,  752,  753,  754,  755,  756
  757,  758,  759,  760,  761,  762,  763,  764,  765,  766,  767,  768,  769,  770,  771,  772
  773,  774,  775,  776,  777,  778,  779,  780,  781,  782,  783,  784,  785,  786,  787,  788
  789,  790,  791,  792,  793,  794,  795,  796,  797,  798,  799,  800,  801,  802,  803,  804
  805,  806,  807,  808,  809,  810,  811,  812,  813,  814,  815,  816,  817,  818,  819,  820
  821,  822,  823,  824,  825,  826,  827,  828,  829,  830,  831,  832,  833,  834,  835,  836
  837,  838,  839,  840,  841,  842,  843,  844,  845,  846,  847,  848,  849,  850,  851,  852
  853,  854,  855,  856,  857,  858,  859,  860,  861,  862,  863,  864,  865,  866,  867,  868
  869,  870,  871,  872,  873,  874,  875,  876,  877,  878,  879,  880,  881,  882,  883,  884
  885,  886,  887,  888,  889,  890,  891,  892,  893,  894,  895,  896,  897,  898,  899, 2643
 2644, 2645, 2646, 2647, 2648, 2649, 2650, 2651, 2652, 2653, 2654, 2655, 2656, 2657, 2658, 2659
 2660, 2661, 2662, 2663, 2664, 2665, 2666, 2667, 2668, 2669, 2670, 2671, 2672, 2673, 2674, 2675
 2676, 2677, 2678, 2679, 2680, 2681, 2682, 2683, 2684, 2685, 2686, 2687, 2688, 2689, 2690, 2691
 2692, 2693, 2694, 2695, 2696, 2697, 2698, 2699, 2700, 2701, 2702, 2703, 2704, 2705, 2706, 2707
 2708, 2709, 2710, 2711, 2712, 2713, 2714, 2715, 2716, 2717, 2718, 2719, 2720, 2721, 2722, 2723
 2724, 2725, 2726, 2727, 2728, 2729, 2730, 2731, 2732, 2733, 2734, 2735, 2736, 2737, 2738, 2739
 2740, 2741, 2742, 2743, 2744, 2745, 2746, 2747, 2748, 2749, 2750, 2751, 2752, 2753, 2754, 2755
 2756, 2757, 2758, 2759, 2760, 2761, 2762, 2763, 2764, 2765, 2766, 2767, 2768, 2769, 2770, 2771
 2772, 2773, 2774, 2775, 2776, 2777, 2778, 2779, 2780, 2781, 2782, 2783, 2784, 2785, 2786, 2787
 2788, 2789, 2790, 2791, 2792, 2793, 2794, 2795, 2796, 2797, 2798, 2799, 2800, 2801, 2802, 2803
 2804, 2805, 2806, 2807, 2808, 2809, 2810, 2811, 2812, 2813, 2814, 2815, 2816, 2817, 2818, 2819
 2820, 2821, 2822, 2823, 2824, 2825, 2826, 2827, 2828, 2829, 2830, 2831, 2832, 2833, 2834, 2835
 2836, 2837, 2838, 2839, 2840, 2841, 2842, 2843, 2844, 2845, 2846, 2847, 2848, 2849, 2850, 2851
 2852, 2853, 2854, 2855, 2856, 2857, 2858, 2859, 2860, 2861, 2862, 2863, 2864, 2865, 2866, 2867
 2868, 2869, 2870, 2871, 2872, 2873, 2874, 2875, 2876, 2877, 2878, 2879, 2880, 2881, 2882, 2883
 2884, 2885, 2886, 2887, 2888, 2889, 2890, 2891, 2892, 2893, 2894
*Elset, elset=FrozenLowerLeftPin, generate
    1,  2641,     1
*Nset, nset=FrozenLowerRightPin
   17,   18,   19,   20,   33,   34,   35,   36,   37,   38,  207,  208,  209,  210,  211,  212
  213,  241,  242,  243,  244,  245,  246,  247,  248,  249,  250,  251,  252,  253,  254,  255
  256,  257,  519,  520,  521,  522,  523,  524,  525,  526,  527,  528,  529,  530,  531,  532
  533,  534,  535,  536,  537,  538,  539,  540,  541,  542,  543,  544,  545,  546,  547,  548
  549,  550,  551,  552,  553,  554,  555,  556,  557,  558,  559,  560,  561,  562,  563,  564
  565,  566,  567,  568,  569,  570,  571,  572,  573,  574,  575,  576,  577,  578,  579,  580
  581,  582,  583,  584,  585,  586,  587,  588,  589,  590,  591,  592,  593,  594,  595,  596
  597,  598, 1145, 1146, 1147, 1148, 1149, 1150, 1151, 1152, 1153, 1154, 1155, 1156, 1157, 1158
 1159, 1160, 1161, 1162, 1163, 1164, 1165, 1166, 1167, 1168, 1169, 1170, 1171, 1172, 1173, 1174
 1175, 1176, 1177, 1178, 1179, 2377, 2378, 2379, 2380, 2381, 2382, 2383, 2384, 2385, 2386, 2387
 2388, 2389, 2390, 2391, 2392, 2393, 2394, 2395, 2396, 2397, 2398, 2399, 2400, 2401, 2402, 2403
 2404, 2405, 2406, 2407, 2408, 2409, 2410, 2411, 2412, 2413, 2414, 2415, 2416, 2417, 2418, 2419
 2420, 2421, 2422, 2423, 2424, 2425, 2426, 2427, 2428, 2429, 2430, 2431, 2432, 2433, 2434, 2435
 2436, 2437, 2438, 2439, 2440, 2441, 2442, 2443, 2444, 2445, 2446, 2447, 2448, 2449, 2450, 2451
 2452, 2453, 2454, 2455, 2456, 2457, 2458, 2459, 2460, 2461, 2462, 2463, 2464, 2465, 2466, 2467
 2468, 2469, 2470, 2471, 2472, 2473, 2474, 2475, 2476, 2477, 2478, 2479, 2480, 2481, 2482, 2483
 2484, 2485, 2486, 2487, 2488, 2489, 2490, 2491, 2492, 2493, 2494, 2495, 2496, 2497, 2498, 2499
 2500, 2501, 2502, 2503, 2504, 2505, 2506, 2507, 2508, 2509, 2510, 2511, 2512, 2513, 2514, 2515
 2516, 2517, 2518, 2519, 2520, 2521, 2522, 2523, 2524, 2525, 2526, 2527, 2528, 2529, 2530, 2531
 2532, 2533, 2534, 2535, 2536, 2537, 2538, 2539, 2540, 2541, 2542, 2543, 2544, 2545, 2546, 2547
 2548, 2549, 2550, 2551, 2552, 2553, 2554, 2555, 2556, 2557, 2558, 2559, 2560, 2561, 2562, 2563
 2564, 2565, 2566, 2567, 2568, 2569, 2570, 2571, 2572, 2573, 2574, 2575, 2576, 2577, 2578, 2579
 2580, 2581, 2582, 2583, 2584, 2585, 2586, 2587, 2588, 2589, 2590, 2591, 2592, 2593, 2594, 2595
 2596, 2597, 2598, 2599, 2600, 2601, 2602, 2603, 2604, 2605, 2606, 2607, 2608, 2609, 2610, 2611
 2612, 2613, 2614, 2615, 2616, 2617, 2618, 2619, 2620, 2621, 2622, 2623, 2624, 2625, 2626, 2627
 2628, 2629, 2630, 2631, 2632, 2633, 2634, 2635, 2636, 2637, 2638, 2639, 2640, 2641, 2642, 4497
 4498, 4499, 4500, 4501, 4502, 4503, 4504, 4505, 4506, 4507, 4508, 4509, 4510, 4511, 4512, 4513
 4514, 4515, 4516, 4517, 4518, 4519, 4520, 4521, 4522, 4523, 4524, 4525, 4526, 4527, 4528, 4529
 4530, 4531, 4532, 4533, 4534, 4535, 4536, 4537, 4538, 4539, 4540, 4541, 4542, 4543, 4544, 4545
 4546, 4547, 4548, 4549, 4550, 4551, 4552, 4553, 4554, 4555, 4556, 4557, 4558, 4559, 4560, 4561
 4562, 4563, 4564, 4565, 4566, 4567, 4568, 4569, 4570, 4571, 4572, 4573, 4574, 4575, 4576, 4577
 4578, 4579, 4580, 4581, 4582, 4583, 4584, 4585, 4586, 4587, 4588, 4589, 4590, 4591, 4592, 4593
 4594, 4595, 4596, 4597, 4598, 4599, 4600, 4601, 4602, 4603, 4604, 4605, 4606, 4607, 4608, 4609
 4610, 4611, 4612, 4613, 4614, 4615, 4616, 4617, 4618, 4619, 4620, 4621, 4622, 4623, 4624, 4625
 4626, 4627, 4628, 4629, 4630, 4631, 4632, 4633, 4634, 4635, 4636, 4637, 4638, 4639, 4640, 4641
 4642, 4643, 4644, 4645, 4646, 4647, 4648, 4649, 4650, 4651, 4652, 4653, 4654, 4655, 4656, 4657
 4658, 4659, 4660, 4661, 4662, 4663, 4664, 4665, 4666, 4667, 4668, 4669, 4670, 4671, 4672, 4673
 4674, 4675, 4676, 4677, 4678, 4679, 4680, 4681, 4682, 4683, 4684, 4685, 4686, 4687, 4688, 4689
 4690, 4691, 4692, 4693, 4694, 4695, 4696, 4697, 4698, 4699, 4700, 4701, 4702, 4703, 4704, 4705
 4706, 4707, 4708, 4709, 4710, 4711, 4712, 4713, 4714, 4715, 4716, 4717, 4718, 4719, 4720, 4721
 4722, 4723, 4724, 4725, 4726, 4727, 4728, 4729, 4730, 4731, 4732, 4733, 4734, 4735, 4736, 4737
 4738, 4739, 4740, 4741, 4742, 4743, 4744, 4745, 4746, 4747, 4748, 4749, 4750, 4751, 4752
*Elset, elset=FrozenLowerRightPin, generate
 17842,  20527,      1
*Nset, nset=DesignSpace
    5,    6,    7,    8,   11,   12,   13,   14,   15,   16,   17,   18,   19,   20,   21,   22
   23,   24,   25,   26,   63,   64,   65,   66,   67,   84,   85,   86,   87,   88,   89,   90
   91,   92,   93,   94,   95,   96,   97,   98,   99,  100,  101,  102,  143,  144,  145,  146
  147,  148,  149,  150,  151,  152,  153,  154,  155,  156,  157,  158,  159,  160,  161,  162
  163,  164,  165,  166,  167,  168,  169,  170,  171,  172,  173,  174,  175,  176,  177,  178
  179,  180,  181,  182,  183,  184,  185,  186,  187,  188,  189,  190,  191,  192,  193,  194
  195,  196,  197,  198,  199,  200,  201,  202,  203,  204,  205,  206,  207,  208,  209,  210
  211,  212,  213,  214,  215,  216,  217,  218,  219,  220,  221,  222,  223,  224,  225,  226
  227,  228,  229,  230,  231,  232,  233,  234,  235,  236,  237,  238,  239,  240,  241,  242
  243,  244,  245,  246,  247,  248,  249,  250,  251,  252,  253,  254,  255,  256,  257,  258
  259,  260,  261,  262,  263,  264,  265,  266,  267,  268,  269,  270,  271,  272,  273,  274
  275,  276,  277,  278,  279,  280,  281,  282,  283,  284,  285,  286,  287,  288,  289,  290
  291,  292,  293,  294,  295,  296,  297,  298,  299,  300,  301,  302,  303,  304,  305,  306
  307,  308,  309,  310,  311,  312,  313,  314,  315,  316,  317,  318,  319,  320,  321,  322
  323,  324,  325,  326,  327,  328,  329,  330,  331,  332,  333,  334,  335,  336,  337,  338
  339,  340,  341,  342,  343,  344,  345,  346,  347,  348,  349,  350,  351,  352,  353,  354
  355,  356,  357,  358,  359,  360,  361,  362,  363,  364,  365,  366,  367,  368,  369,  370
  371,  372,  373,  374,  375,  376,  377,  378,  379,  380,  381,  382,  383,  384,  385,  386
  387,  388,  389,  390,  391,  392,  393,  394,  395,  396,  397,  398,  399,  400,  401,  402
  403,  404,  405,  406,  407,  408,  409,  410,  411,  412,  413,  414,  415,  416,  417,  418
  419,  420,  421,  422,  423,  424,  425,  426,  427,  428,  429,  430,  431,  432,  433,  434
  435,  436,  437,  438,  674,  675,  676,  677,  678,  679,  680,  681,  682,  683,  684,  685
  686,  687,  688,  689,  690,  691,  692,  693,  694,  695,  696,  697,  698,  699,  700,  701
  702,  703,  704,  705,  706,  707,  708,  900,  901,  902,  903,  904,  905,  906,  907,  908
  909,  910,  911,  912,  913,  914,  915,  916,  917,  918,  919,  920,  921,  922,  923,  924
  925,  926,  927,  928,  929,  930,  931,  932,  933,  934,  935,  936,  937,  938,  939,  940
  941,  942,  943,  944,  945,  946,  947,  948,  949,  950,  951,  952,  953,  954,  955,  956
  957,  958,  959,  960,  961,  962,  963,  964,  965,  966,  967,  968,  969,  970,  971,  972
  973,  974,  975,  976,  977,  978,  979,  980,  981,  982,  983,  984,  985,  986,  987,  988
  989,  990,  991,  992,  993,  994,  995,  996,  997,  998,  999, 1000, 1001, 1002, 1003, 1004
 1005, 1006, 1007, 1008, 1009, 1010, 1011, 1012, 1013, 1014, 1015, 1016, 1017, 1018, 1019, 1020
 1021, 1022, 1023, 1024, 1025, 1026, 1027, 1028, 1029, 1030, 1031, 1032, 1033, 1034, 1035, 1036
 1037, 1038, 1039, 1040, 1041, 1042, 1043, 1044, 1045, 1046, 1047, 1048, 1049, 1050, 1051, 1052
 1053, 1054, 1055, 1056, 1057, 1058, 1059, 1060, 1061, 1062, 1063, 1064, 1065, 1066, 1067, 1068
 1069, 1070, 1071, 1072, 1073, 1074, 1075, 1076, 1077, 1078, 1079, 1080, 1081, 1082, 1083, 1084
 1085, 1086, 1087, 1088, 1089, 1090, 1091, 1092, 1093, 1094, 1095, 1096, 1097, 1098, 1099, 1100
 1101, 1102, 1103, 1104, 1105, 1106, 1107, 1108, 1109, 1110, 1111, 1112, 1113, 1114, 1115, 1116
 1117, 1118, 1119, 1120, 1121, 1122, 1123, 1124, 1125, 1126, 1127, 1128, 1129, 1130, 1131, 1132
 1133, 1134, 1135, 1136, 1137, 1138, 1139, 1140, 1141, 1142, 1143, 1144, 1145, 1146, 1147, 1148
 1149, 1150, 1151, 1152, 1153, 1154, 1155, 1156, 1157, 1158, 1159, 1160, 1161, 1162, 1163, 1164
 1165, 1166, 1167, 1168, 1169, 1170, 1171, 1172, 1173, 1174, 1175, 1176, 1177, 1178, 1179, 1180
 1181, 1182, 1183, 1184, 1185, 1186, 1187, 1188, 1189, 1190, 1191, 1192, 1193, 1194, 1195, 1196
 1197, 1198, 1199, 1200, 1201, 1202, 1203, 1204, 1205, 1206, 1207, 1208, 1209, 1210, 1211, 1212
 1213, 1214, 1215, 1216, 1217, 1218, 1219, 1220, 1221, 1222, 1223, 1224, 1225, 1226, 1227, 1228
 1229, 1230, 1231, 1232, 1233, 1234, 1235, 1236, 1237, 1238, 1239, 1240, 1241, 1242, 1243, 1244
 1245, 1246, 1247, 1248, 1249, 1250, 1251, 1252, 1253, 1254, 1255, 1256, 1257, 1258, 1259, 1260
 1261, 1262, 1263, 1264, 1265, 1266, 1267, 1268, 1269, 1270, 1271, 1272, 1273, 1274, 1275, 1276
 1277, 1278, 1279, 1280, 1281, 1282, 1283, 1284, 1285, 1286, 1287, 1288, 1289, 1290, 1291, 1292
 1293, 1294, 1295, 1296, 1297, 1298, 1299, 1300, 1301, 1302, 1303, 1304, 1305, 1306, 1307, 1308
 1309, 1310, 1311, 1312, 1313, 1314, 1315, 1316, 1317, 1318, 1319, 1320, 1321, 1322, 1323, 1324
 1325, 1326, 1327, 1328, 1329, 1330, 1331, 1332, 1333, 1334, 1335, 1336, 1337, 1338, 1339, 1340
 1341, 1342, 1343, 1344, 1345, 1346, 1347, 1348, 1349, 1350, 1351, 1352, 1353, 1354, 1355, 1356
 1357, 1358, 1359, 1360, 1361, 1362, 1363, 1364, 1365, 1366, 1367, 1368, 1369, 1370, 1371, 1372
 1373, 1374, 1375, 1376, 1377, 1378, 1379, 1380, 1381, 1382, 1383, 1384, 1385, 1386, 1387, 1388
 1389, 1390, 1391, 1392, 1393, 1394, 1395, 1396, 1397, 1398, 1399, 1400, 1401, 1402, 1403, 1404
 1405, 1406, 1407, 1408, 1409, 1410, 1411, 1412, 1413, 1414, 1415, 1416, 1417, 1418, 1419, 1420
 1421, 1422, 1423, 1424, 1425, 1426, 1427, 1428, 1429, 1430, 1431, 1432, 1433, 1434, 1435, 1436
 1437, 1438, 1439, 1440, 1441, 1442, 1443, 1444, 1445, 1446, 1447, 1448, 1449, 1450, 1451, 1452
 1453, 1454, 1455, 1456, 1457, 1458, 1459, 1460, 1461, 1462, 1463, 1464, 1465, 1466, 1467, 1468
 1469, 1470, 1471, 1472, 1473, 1474, 1475, 1476, 1477, 1478, 1479, 1480, 1481, 1482, 1483, 1484
 1485, 1486, 1487, 1488, 1489, 1490, 1491, 1492, 1493, 1494, 1495, 1496, 1497, 1498, 1499, 1500
 1501, 1502, 1503, 1504, 1505, 1506, 1507, 1508, 1509, 1510, 1511, 1512, 1513, 1514, 1515, 1516
 1517, 1518, 1519, 1520, 1521, 1522, 1523, 1524, 1525, 1526, 1527, 1528, 1529, 1530, 1531, 1532
 1533, 1534, 1535, 1536, 1537, 1538, 1539, 1540, 1541, 1542, 1543, 1544, 1545, 1546, 1547, 1548
 1549, 1550, 1551, 1552, 1553, 1554, 1555, 1556, 1557, 1558, 1559, 1560, 1561, 1562, 1563, 1564
 1565, 1566, 1567, 1568, 1569, 1570, 1571, 1572, 1573, 1574, 1575, 1576, 1577, 1578, 1579, 1580
 1581, 1582, 1583, 1584, 1585, 1586, 1587, 1588, 1589, 1590, 1591, 1592, 1593, 1594, 1595, 1596
 1597, 1598, 1599, 1600, 1601, 1602, 1603, 1604, 1605, 1606, 1607, 1608, 1609, 1610, 1611, 1612
 1613, 1614, 1615, 1616, 1617, 1618, 1619, 1620, 1621, 1622, 1623, 1624, 1625, 1626, 1627, 1628
 1629, 1630, 1631, 1632, 1633, 1634, 1635, 1636, 1637, 1638, 1639, 1640, 1641, 1642, 1643, 1644
 1645, 1646, 1647, 1648, 1649, 1650, 1651, 1652, 1653, 1654, 1655, 1656, 1657, 1658, 1659, 1660
 1661, 1662, 1663, 1664, 1665, 1666, 1667, 1668, 1669, 1670, 1671, 1672, 1673, 1674, 1675, 1676
 1677, 1678, 1679, 1680, 1681, 1682, 1683, 1684, 1685, 1686, 1687, 1688, 1689, 1690, 1691, 1692
 1693, 1694, 1695, 1696, 1697, 1698, 1699, 1700, 1701, 1702, 1703, 1704, 1705, 1706, 1707, 1708
 1709, 1710, 1711, 1712, 1713, 1714, 1715, 1716, 1717, 1718, 1719, 1720, 1721, 1722, 1723, 1724
 1725, 1726, 1727, 1728, 1729, 1730, 1731, 1732, 1733, 1734, 1735, 1736, 1737, 1738, 1739, 1740
 1741, 1742, 1743, 1744, 1745, 1746, 1747, 1748, 1749, 1750, 1751, 1752, 1753, 1754, 1755, 1756
 1757, 1758, 1759, 1760, 1761, 1762, 1763, 1764, 1765, 1766, 1767, 1768, 1769, 1770, 1771, 1772
 1773, 1774, 1775, 1776, 1777, 1778, 1779, 1780, 1781, 1782, 1783, 1784, 1785, 1786, 1787, 1788
 1789, 1790, 1791, 1792, 1793, 1794, 1795, 1796, 1797, 1798, 1799, 1800, 1801, 1802, 1803, 1804
 1805, 1806, 1807, 1808, 1809, 1810, 1811, 1812, 1813, 1814, 1815, 1816, 1817, 1818, 1819, 1820
 1821, 1822, 1823, 1824, 1825, 1826, 1827, 1828, 1829, 1830, 1831, 1832, 1833, 1834, 1835, 1836
 1837, 1838, 1839, 1840, 1841, 1842, 1843, 1844, 1845, 1846, 1847, 1848, 1849, 1850, 1851, 1852
 1853, 1854, 1855, 1856, 1857, 1858, 1859, 1860, 1861, 1862, 1863, 1864, 1865, 1866, 1867, 1868
 1869, 1870, 1871, 1872, 1873, 1874, 1875, 1876, 1877, 1878, 1879, 1880, 1881, 1882, 1883, 1884
 1885, 1886, 1887, 1888, 1889, 1890, 1891, 1892, 1893, 1894, 1895, 1896, 1897, 1898, 1899, 1900
 1901, 1902, 1903, 1904, 1905, 1906, 1907, 1908, 1909, 1910, 1911, 1912, 1913, 1914, 1915, 1916
 1917, 1918, 1919, 1920, 1921, 1922, 1923, 1924, 1925, 1926, 1927, 1928, 1929, 1930, 1931, 1932
 1933, 1934, 1935, 1936, 1937, 1938, 1939, 1940, 1941, 1942, 1943, 1944, 1945, 1946, 1947, 1948
 1949, 1950, 1951, 1952, 1953, 1954, 1955, 1956, 1957, 1958, 1959, 1960, 1961, 1962, 1963, 1964
 1965, 1966, 1967, 1968, 1969, 1970, 1971, 1972, 1973, 1974, 1975, 1976, 1977, 1978, 1979, 1980
 1981, 1982, 1983, 1984, 1985, 1986, 1987, 1988, 1989, 1990, 1991, 1992, 1993, 1994, 1995, 1996
 1997, 1998, 1999, 2000, 2001, 2002, 2003, 2004, 2005, 2006, 2007, 2008, 2009, 2010, 2011, 2012
 2013, 2014, 2015, 2016, 2017, 2018, 2019, 2020, 2021, 2022, 2023, 2024, 2025, 2026, 2027, 2028
 2029, 2030, 2031, 2032, 2033, 2034, 2035, 2036, 2037, 2038, 2039, 2040, 2041, 2042, 2043, 2044
 2045, 2046, 2047, 2048, 2049, 2050, 2051, 2052, 2053, 2054, 2055, 2056, 2057, 2058, 2059, 2060
 2061, 2062, 2063, 2064, 2065, 2066, 2067, 2068, 2069, 2070, 2071, 2072, 2073, 2074, 2075, 2076
 2077, 2078, 2079, 2080, 2081, 2082, 2083, 2084, 2085, 2086, 2087, 2088, 2089, 2090, 2091, 2092
 2093, 2094, 2095, 2096, 2097, 2098, 2099, 2100, 2101, 2102, 2103, 2104, 2105, 2106, 2107, 2108
 2109, 2110, 2895, 2896, 2897, 2898, 2899, 2900, 2901, 2902, 2903, 2904, 2905, 2906, 2907, 2908
 2909, 2910, 2911, 2912, 2913, 2914, 2915, 2916, 2917, 2918, 2919, 2920, 2921, 2922, 2923, 2924
 2925, 2926, 2927, 2928, 2929, 2930, 2931, 2932, 2933, 2934, 2935, 2936, 2937, 2938, 2939, 2940
 2941, 2942, 2943, 2944, 2945, 2946, 2947, 2948, 2949, 2950, 2951, 2952, 2953, 2954, 2955, 2956
 2957, 2958, 2959, 2960, 2961, 2962, 2963, 2964, 2965, 2966, 2967, 2968, 2969, 2970, 2971, 2972
 2973, 2974, 2975, 2976, 2977, 2978, 2979, 2980, 2981, 2982, 2983, 2984, 2985, 2986, 2987, 2988
 2989, 2990, 2991, 2992, 2993, 2994, 2995, 2996, 2997, 2998, 2999, 3000, 3001, 3002, 3003, 3004
 3005, 3006, 3007, 3008, 3009, 3010, 3011, 3012, 3013, 3014, 3015, 3016, 3017, 3018, 3019, 3020
 3021, 3022, 3023, 3024, 3025, 3026, 3027, 3028, 3029, 3030, 3031, 3032, 3033, 3034, 3035, 3036
 3037, 3038, 3039, 3040, 3041, 3042, 3043, 3044, 3045, 3046, 3047, 3048, 3049, 3050, 3051, 3052
 3053, 3054, 3055, 3056, 3057, 3058, 3059, 3060, 3061, 3062, 3063, 3064, 3065, 3066, 3067, 3068
 3069, 3070, 3071, 3072, 3073, 3074, 3075, 3076, 3077, 3078, 3079, 3080, 3081, 3082, 3083, 3084
 3085, 3086, 3087, 3088, 3089, 3090, 3091, 3092, 3093, 3094, 3095, 3096, 3097, 3098, 3099, 3100
 3101, 3102, 3103, 3104, 3105, 3106, 3107, 3108, 3109, 3110, 3111, 3112, 3113, 3114, 3115, 3116
 3117, 3118, 3119, 3120, 3121, 3122, 3123, 3124, 3125, 3126, 3127, 3128, 3129, 3130, 3131, 3132
 3133, 3134, 3135, 3136, 3137, 3138, 3139, 3140, 3141, 3142, 3143, 3144, 3145, 3146, 3147, 3148
 3149, 3150, 3151, 3152, 3153, 3154, 3155, 3156, 3157, 3158, 3159, 3160, 3161, 3162, 3163, 3164
 3165, 3166, 3167, 3168, 3169, 3170, 3171, 3172, 3173, 3174, 3175, 3176, 3177, 3178, 3179, 3180
 3181, 3182, 3183, 3184, 3185, 3186, 3187, 3188, 3189, 3190, 3191, 3192, 3193, 3194, 3195, 3196
 3197, 3198, 3199, 3200, 3201, 3202, 3203, 3204, 3205, 3206, 3207, 3208, 3209, 3210, 3211, 3212
 3213, 3214, 3215, 3216, 3217, 3218, 3219, 3220, 3221, 3222, 3223, 3224, 3225, 3226, 3227, 3228
 3229, 3230, 3231, 3232, 3233, 3234, 3235, 3236, 3237, 3238, 3239, 3240, 3241, 3242, 3243, 3244
 3245, 3246, 3247, 3248, 3249, 3250, 3251, 3252, 3253, 3254, 3255, 3256, 3257, 3258, 3259, 3260
 3261, 3262, 3263, 3264, 3265, 3266, 3267, 3268, 3269, 3270, 3271, 3272, 3273, 3274, 3275, 3276
 3277, 3278, 3279, 3280, 3281, 3282, 3283, 3284, 3285, 3286, 3287, 3288, 3289, 3290, 3291, 3292
 3293, 3294, 3295, 3296, 3297, 3298, 3299, 3300, 3301, 3302, 3303, 3304, 3305, 3306, 3307, 3308
 3309, 3310, 3311, 3312, 3313, 3314, 3315, 3316, 3317, 3318, 3319, 3320, 3321, 3322, 3323, 3324
 3325, 3326, 3327, 3328, 3329, 3330, 3331, 3332, 3333, 3334, 3335, 3336, 3337, 3338, 3339, 3340
 3341, 3342, 3343, 3344, 3345, 3346, 3347, 3348, 3349, 3350, 3351, 3352, 3353, 3354, 3355, 3356
 3357, 3358, 3359, 3360, 3361, 3362, 3363, 3364, 3365, 3366, 3367, 3368, 3369, 3370, 3371, 3372
 3373, 3374, 3375, 3376, 3377, 3378, 3379, 3380, 3381, 3382, 3383, 3384, 3385, 3386, 3387, 3388
 3389, 3390, 3391, 3392, 3393, 3394, 3395, 3396, 3397, 3398, 3399, 3400, 3401, 3402, 3403, 3404
 3405, 3406, 3407, 3408, 3409, 3410, 3411, 3412, 3413, 3414, 3415, 3416, 3417, 3418, 3419, 3420
 3421, 3422, 3423, 3424, 3425, 3426, 3427, 3428, 3429, 3430, 3431, 3432, 3433, 3434, 3435, 3436
 3437, 3438, 3439, 3440, 3441, 3442, 3443, 3444, 3445, 3446, 3447, 3448, 3449, 3450, 3451, 3452
 3453, 3454, 3455, 3456, 3457, 3458, 3459, 3460, 3461, 3462, 3463, 3464, 3465, 3466, 3467, 3468
 3469, 3470, 3471, 3472, 3473, 3474, 3475, 3476, 3477, 3478, 3479, 3480, 3481, 3482, 3483, 3484
 3485, 3486, 3487, 3488, 3489, 3490, 3491, 3492, 3493, 3494, 3495, 3496, 3497, 3498, 3499, 3500
 3501, 3502, 3503, 3504, 3505, 3506, 3507, 3508, 3509, 3510, 3511, 3512, 3513, 3514, 3515, 3516
 3517, 3518, 3519, 3520, 3521, 3522, 3523, 3524, 3525, 3526, 3527, 3528, 3529, 3530, 3531, 3532
 3533, 3534, 3535, 3536, 3537, 3538, 3539, 3540, 3541, 3542, 3543, 3544, 3545, 3546, 3547, 3548
 3549, 3550, 3551, 3552, 3553, 3554, 3555, 3556, 3557, 3558, 3559, 3560, 3561, 3562, 3563, 3564
 3565, 3566, 3567, 3568, 3569, 3570, 3571, 3572, 3573, 3574, 3575, 3576, 3577, 3578, 3579, 3580
 3581, 3582, 3583, 3584, 3585, 3586, 3587, 3588, 3589, 3590, 3591, 3592, 3593, 3594, 3595, 3596
 3597, 3598, 3599, 3600, 3601, 3602, 3603, 3604, 3605, 3606, 3607, 3608, 3609, 3610, 3611, 3612
 3613, 3614, 3615, 3616, 3617, 3618, 3619, 3620, 3621, 3622, 3623, 3624, 3625, 3626, 3627, 3628
 3629, 3630, 3631, 3632, 3633, 3634, 3635, 3636, 3637, 3638, 3639, 3640, 3641, 3642, 3643, 3644
 3645, 3646, 3647, 3648, 3649, 3650, 3651, 3652, 3653, 3654, 3655, 3656, 3657, 3658, 3659, 3660
 3661, 3662, 3663, 3664, 3665, 3666, 3667, 3668, 3669, 3670, 3671, 3672, 3673, 3674, 3675, 3676
 3677, 3678, 3679, 3680, 3681, 3682, 3683, 3684, 3685, 3686, 3687, 3688, 3689, 3690, 3691, 3692
 3693, 3694, 3695, 3696, 3697, 3698, 3699, 3700, 3701, 3702, 3703, 3704, 3705, 3706, 3707, 3708
 3709, 3710, 3711, 3712, 3713, 3714, 3715, 3716, 3717, 3718, 3719, 3720, 3721, 3722, 3723, 3724
 3725, 3726, 3727, 3728, 3729, 3730, 3731, 3732, 3733, 3734, 3735, 3736, 3737, 3738, 3739, 3740
 3741, 3742, 3743, 3744, 3745, 3746, 3747, 3748, 3749, 3750, 3751, 3752, 3753, 3754, 3755, 3756
 3757, 3758, 3759, 3760, 3761, 3762, 3763, 3764, 3765, 3766, 3767, 3768, 3769, 3770, 3771, 3772
 3773, 3774, 3775, 3776, 3777, 3778, 3779, 3780, 3781, 3782, 3783, 3784, 3785, 3786, 3787, 3788
 3789, 3790, 3791, 3792, 3793, 3794, 3795, 3796, 3797, 3798, 3799, 3800, 3801, 3802, 3803, 3804
 3805, 3806, 3807, 3808, 3809, 3810, 3811, 3812, 3813, 3814, 3815, 3816, 3817, 3818, 3819, 3820
 3821, 3822, 3823, 3824, 3825, 3826, 3827, 3828, 3829, 3830, 3831, 3832, 3833, 3834, 3835, 3836
 3837, 3838, 3839, 3840, 3841, 3842, 3843, 3844, 3845, 3846, 3847, 3848, 3849, 3850, 3851, 3852
 3853, 3854, 3855, 3856, 3857, 3858, 3859, 3860, 3861, 3862, 3863, 3864, 3865, 3866, 3867, 3868
 3869, 3870, 3871, 3872, 3873, 3874, 3875, 3876, 3877, 3878, 3879, 3880, 3881, 3882, 3883, 3884
 3885, 3886, 3887, 3888, 3889, 3890, 3891, 3892, 3893, 3894, 3895, 3896, 3897, 3898, 3899, 3900
 3901, 3902, 3903, 3904, 3905, 3906, 3907, 3908, 3909, 3910, 3911, 3912, 3913, 3914, 3915, 3916
 3917, 3918, 3919, 3920, 3921, 3922, 3923, 3924, 3925, 3926, 3927, 3928, 3929, 3930, 3931, 3932
 3933, 3934, 3935, 3936, 3937, 3938, 3939, 3940, 3941, 3942, 3943, 3944, 3945, 3946, 3947, 3948
 3949, 3950, 3951, 3952, 3953, 3954, 3955, 3956, 3957, 3958, 3959, 3960, 3961, 3962, 3963, 3964
 3965, 3966, 3967, 3968, 3969, 3970, 3971, 3972, 3973, 3974, 3975, 3976, 3977, 3978, 3979, 3980
 3981, 3982, 3983, 3984, 3985, 3986, 3987, 3988, 3989, 3990, 3991, 3992, 3993, 3994, 3995, 3996
 3997, 3998, 3999, 4000, 4001, 4002, 4003, 4004, 4005, 4006, 4007, 4008, 4009, 4010, 4011, 4012
 4013, 4014, 4015, 4016, 4017, 4018, 4019, 4020, 4021, 4022, 4023, 4024, 4025, 4026, 4027, 4028
 4029, 4030, 4031, 4032, 4033, 4034, 4035, 4036, 4037, 4038, 4039, 4040, 4041, 4042, 4043, 4044
 4045, 4046, 4047, 4048, 4049, 4050, 4051, 4052, 4053, 4054, 4055, 4056, 4057, 4058, 4059, 4060
 4061, 4062, 4063, 4064, 4065, 4066, 4067, 4068, 4069, 4070, 4071, 4072, 4073, 4074, 4075, 4076
 4077, 4078, 4079, 4080, 4081, 4082, 4083, 4084, 4085, 4086, 4087, 4088, 4089, 4090, 4091, 4092
 4093, 4094, 4095, 4096, 4097, 4098, 4099, 4100, 4101, 4102, 4103, 4104, 4105, 4106, 4107, 4108
 4109, 4110, 4111, 4112, 4113, 4114, 4115, 4116, 4117, 4118, 4119, 4120, 4121, 4122, 4123, 4124
 4125, 4126, 4127, 4128, 4129, 4130, 4131, 4132, 4133, 4134, 4135, 4136, 4137, 4138, 4139, 4140
 4141, 4142, 4143, 4144, 4145, 4146, 4147, 4148, 4149, 4150, 4151, 4152, 4153, 4154, 4155, 4156
 4157, 4158, 4159, 4160, 4161, 4162, 4163, 4164, 4165, 4166, 4167, 4168, 4169, 4170, 4171, 4172
 4173, 4174, 4175, 4176, 4177, 4178, 4179, 4180, 4181, 4182, 4183, 4184, 4185, 4186, 4187, 4188
 4189, 4190, 4191, 4192, 4193, 4194, 4195, 4196, 4197, 4198, 4199, 4200, 4201, 4202, 4203, 4204
 4205, 4206, 4207, 4208, 4209, 4210, 4211, 4212, 4213, 4214, 4215, 4216, 4217, 4218, 4219, 4220
 4221, 4222, 4223, 4224, 4225, 4226, 4227, 4228, 4229, 4230, 4231
*Elset, elset=DesignSpace, generate
  2642,  15107,      1
*Nset, nset=AllCells, generate
    1,  4752,     1
*Elset, elset=AllCells, generate
     1,  20527,      1
** Section: SolidSection
*Solid Section, elset=AllCells, material=IN718
,
*End Part
**  
**
** ASSEMBLY
**
*Assembly, name=Assembly
**  
*Instance, name=TO_Specimen-1, part=TO_Specimen
*End Instance
**  
*Node
      1,           0.,   132.169998,         12.5
*Nset, nset=FreezeLowerLeft, instance=TO_Specimen-1
    1,    2,    3,    4,    5,    6,    7,    8,    9,   10,   39,   40,   41,   42,   43,   44
   45,   46,   47,   48,   49,   50,   51,   52,   53,   54,   55,   56,   57,   58,   59,   60
   61,   62,   63,   64,   65,   66,   67,   68,   69,   70,   71,   72,   73,   74,   75,   76
   77,   78,   79,   80,   81,   82,   83,   84,   85,   86,   87,   88,   89,   90,   91,   92
   93,   94,   95,   96,   97,   98,   99,  100,  101,  102,  103,  104,  105,  106,  107,  108
  109,  110,  111,  112,  113,  114,  115,  116,  117,  118,  119,  120,  121,  122,  123,  124
  125,  126,  127,  128,  129,  130,  131,  132,  133,  134,  135,  136,  137,  138,  139,  140
  141,  142,  599,  600,  601,  602,  603,  604,  605,  606,  607,  608,  609,  610,  611,  612
  613,  614,  615,  616,  617,  618,  619,  620,  621,  622,  623,  624,  625,  626,  627,  628
  629,  630,  631,  632,  633,  634,  635,  636,  637,  638,  639,  640,  641,  642,  643,  644
  645,  646,  647,  648,  649,  650,  651,  652,  653,  654,  655,  656,  657,  658,  659,  660
  661,  662,  663,  664,  665,  666,  667,  668,  669,  670,  671,  672,  673,  674,  675,  676
  677,  678,  679,  680,  681,  682,  683,  684,  685,  686,  687,  688,  689,  690,  691,  692
  693,  694,  695,  696,  697,  698,  699,  700,  701,  702,  703,  704,  705,  706,  707,  708
  709,  710,  711,  712,  713,  714,  715,  716,  717,  718,  719,  720,  721,  722,  723,  724
  725,  726,  727,  728,  729,  730,  731,  732,  733,  734,  735,  736,  737,  738,  739,  740
  741,  742,  743,  744,  745,  746,  747,  748,  749,  750,  751,  752,  753,  754,  755,  756
  757,  758,  759,  760,  761,  762,  763,  764,  765,  766,  767,  768,  769,  770,  771,  772
  773,  774,  775,  776,  777,  778,  779,  780,  781,  782,  783,  784,  785,  786,  787,  788
  789,  790,  791,  792,  793,  794,  795,  796,  797,  798,  799,  800,  801,  802,  803,  804
  805,  806,  807,  808,  809,  810,  811,  812,  813,  814,  815,  816,  817,  818,  819,  820
  821,  822,  823,  824,  825,  826,  827,  828,  829,  830,  831,  832,  833,  834,  835,  836
  837,  838,  839,  840,  841,  842,  843,  844,  845,  846,  847,  848,  849,  850,  851,  852
  853,  854,  855,  856,  857,  858,  859,  860,  861,  862,  863,  864,  865,  866,  867,  868
  869,  870,  871,  872,  873,  874,  875,  876,  877,  878,  879,  880,  881,  882,  883,  884
  885,  886,  887,  888,  889,  890,  891,  892,  893,  894,  895,  896,  897,  898,  899, 2643
 2644, 2645, 2646, 2647, 2648, 2649, 2650, 2651, 2652, 2653, 2654, 2655, 2656, 2657, 2658, 2659
 2660, 2661, 2662, 2663, 2664, 2665, 2666, 2667, 2668, 2669, 2670, 2671, 2672, 2673, 2674, 2675
 2676, 2677, 2678, 2679, 2680, 2681, 2682, 2683, 2684, 2685, 2686, 2687, 2688, 2689, 2690, 2691
 2692, 2693, 2694, 2695, 2696, 2697, 2698, 2699, 2700, 2701, 2702, 2703, 2704, 2705, 2706, 2707
 2708, 2709, 2710, 2711, 2712, 2713, 2714, 2715, 2716, 2717, 2718, 2719, 2720, 2721, 2722, 2723
 2724, 2725, 2726, 2727, 2728, 2729, 2730, 2731, 2732, 2733, 2734, 2735, 2736, 2737, 2738, 2739
 2740, 2741, 2742, 2743, 2744, 2745, 2746, 2747, 2748, 2749, 2750, 2751, 2752, 2753, 2754, 2755
 2756, 2757, 2758, 2759, 2760, 2761, 2762, 2763, 2764, 2765, 2766, 2767, 2768, 2769, 2770, 2771
 2772, 2773, 2774, 2775, 2776, 2777, 2778, 2779, 2780, 2781, 2782, 2783, 2784, 2785, 2786, 2787
 2788, 2789, 2790, 2791, 2792, 2793, 2794, 2795, 2796, 2797, 2798, 2799, 2800, 2801, 2802, 2803
 2804, 2805, 2806, 2807, 2808, 2809, 2810, 2811, 2812, 2813, 2814, 2815, 2816, 2817, 2818, 2819
 2820, 2821, 2822, 2823, 2824, 2825, 2826, 2827, 2828, 2829, 2830, 2831, 2832, 2833, 2834, 2835
 2836, 2837, 2838, 2839, 2840, 2841, 2842, 2843, 2844, 2845, 2846, 2847, 2848, 2849, 2850, 2851
 2852, 2853, 2854, 2855, 2856, 2857, 2858, 2859, 2860, 2861, 2862, 2863, 2864, 2865, 2866, 2867
 2868, 2869, 2870, 2871, 2872, 2873, 2874, 2875, 2876, 2877, 2878, 2879, 2880, 2881, 2882, 2883
 2884, 2885, 2886, 2887, 2888, 2889, 2890, 2891, 2892, 2893, 2894
*Elset, elset=FreezeLowerLeft, instance=TO_Specimen-1, generate
    1,  2641,     1
*Nset, nset=FreezeLowerRight, instance=TO_Specimen-1
   17,   18,   19,   20,   33,   34,   35,   36,   37,   38,  207,  208,  209,  210,  211,  212
  213,  241,  242,  243,  244,  245,  246,  247,  248,  249,  250,  251,  252,  253,  254,  255
  256,  257,  519,  520,  521,  522,  523,  524,  525,  526,  527,  528,  529,  530,  531,  532
  533,  534,  535,  536,  537,  538,  539,  540,  541,  542,  543,  544,  545,  546,  547,  548
  549,  550,  551,  552,  553,  554,  555,  556,  557,  558,  559,  560,  561,  562,  563,  564
  565,  566,  567,  568,  569,  570,  571,  572,  573,  574,  575,  576,  577,  578,  579,  580
  581,  582,  583,  584,  585,  586,  587,  588,  589,  590,  591,  592,  593,  594,  595,  596
  597,  598, 1145, 1146, 1147, 1148, 1149, 1150, 1151, 1152, 1153, 1154, 1155, 1156, 1157, 1158
 1159, 1160, 1161, 1162, 1163, 1164, 1165, 1166, 1167, 1168, 1169, 1170, 1171, 1172, 1173, 1174
 1175, 1176, 1177, 1178, 1179, 2377, 2378, 2379, 2380, 2381, 2382, 2383, 2384, 2385, 2386, 2387
 2388, 2389, 2390, 2391, 2392, 2393, 2394, 2395, 2396, 2397, 2398, 2399, 2400, 2401, 2402, 2403
 2404, 2405, 2406, 2407, 2408, 2409, 2410, 2411, 2412, 2413, 2414, 2415, 2416, 2417, 2418, 2419
 2420, 2421, 2422, 2423, 2424, 2425, 2426, 2427, 2428, 2429, 2430, 2431, 2432, 2433, 2434, 2435
 2436, 2437, 2438, 2439, 2440, 2441, 2442, 2443, 2444, 2445, 2446, 2447, 2448, 2449, 2450, 2451
 2452, 2453, 2454, 2455, 2456, 2457, 2458, 2459, 2460, 2461, 2462, 2463, 2464, 2465, 2466, 2467
 2468, 2469, 2470, 2471, 2472, 2473, 2474, 2475, 2476, 2477, 2478, 2479, 2480, 2481, 2482, 2483
 2484, 2485, 2486, 2487, 2488, 2489, 2490, 2491, 2492, 2493, 2494, 2495, 2496, 2497, 2498, 2499
 2500, 2501, 2502, 2503, 2504, 2505, 2506, 2507, 2508, 2509, 2510, 2511, 2512, 2513, 2514, 2515
 2516, 2517, 2518, 2519, 2520, 2521, 2522, 2523, 2524, 2525, 2526, 2527, 2528, 2529, 2530, 2531
 2532, 2533, 2534, 2535, 2536, 2537, 2538, 2539, 2540, 2541, 2542, 2543, 2544, 2545, 2546, 2547
 2548, 2549, 2550, 2551, 2552, 2553, 2554, 2555, 2556, 2557, 2558, 2559, 2560, 2561, 2562, 2563
 2564, 2565, 2566, 2567, 2568, 2569, 2570, 2571, 2572, 2573, 2574, 2575, 2576, 2577, 2578, 2579
 2580, 2581, 2582, 2583, 2584, 2585, 2586, 2587, 2588, 2589, 2590, 2591, 2592, 2593, 2594, 2595
 2596, 2597, 2598, 2599, 2600, 2601, 2602, 2603, 2604, 2605, 2606, 2607, 2608, 2609, 2610, 2611
 2612, 2613, 2614, 2615, 2616, 2617, 2618, 2619, 2620, 2621, 2622, 2623, 2624, 2625, 2626, 2627
 2628, 2629, 2630, 2631, 2632, 2633, 2634, 2635, 2636, 2637, 2638, 2639, 2640, 2641, 2642, 4497
 4498, 4499, 4500, 4501, 4502, 4503, 4504, 4505, 4506, 4507, 4508, 4509, 4510, 4511, 4512, 4513
 4514, 4515, 4516, 4517, 4518, 4519, 4520, 4521, 4522, 4523, 4524, 4525, 4526, 4527, 4528, 4529
 4530, 4531, 4532, 4533, 4534, 4535, 4536, 4537, 4538, 4539, 4540, 4541, 4542, 4543, 4544, 4545
 4546, 4547, 4548, 4549, 4550, 4551, 4552, 4553, 4554, 4555, 4556, 4557, 4558, 4559, 4560, 4561
 4562, 4563, 4564, 4565, 4566, 4567, 4568, 4569, 4570, 4571, 4572, 4573, 4574, 4575, 4576, 4577
 4578, 4579, 4580, 4581, 4582, 4583, 4584, 4585, 4586, 4587, 4588, 4589, 4590, 4591, 4592, 4593
 4594, 4595, 4596, 4597, 4598, 4599, 4600, 4601, 4602, 4603, 4604, 4605, 4606, 4607, 4608, 4609
 4610, 4611, 4612, 4613, 4614, 4615, 4616, 4617, 4618, 4619, 4620, 4621, 4622, 4623, 4624, 4625
 4626, 4627, 4628, 4629, 4630, 4631, 4632, 4633, 4634, 4635, 4636, 4637, 4638, 4639, 4640, 4641
 4642, 4643, 4644, 4645, 4646, 4647, 4648, 4649, 4650, 4651, 4652, 4653, 4654, 4655, 4656, 4657
 4658, 4659, 4660, 4661, 4662, 4663, 4664, 4665, 4666, 4667, 4668, 4669, 4670, 4671, 4672, 4673
 4674, 4675, 4676, 4677, 4678, 4679, 4680, 4681, 4682, 4683, 4684, 4685, 4686, 4687, 4688, 4689
 4690, 4691, 4692, 4693, 4694, 4695, 4696, 4697, 4698, 4699, 4700, 4701, 4702, 4703, 4704, 4705
 4706, 4707, 4708, 4709, 4710, 4711, 4712, 4713, 4714, 4715, 4716, 4717, 4718, 4719, 4720, 4721
 4722, 4723, 4724, 4725, 4726, 4727, 4728, 4729, 4730, 4731, 4732, 4733, 4734, 4735, 4736, 4737
 4738, 4739, 4740, 4741, 4742, 4743, 4744, 4745, 4746, 4747, 4748, 4749, 4750, 4751, 4752
*Elset, elset=FreezeLowerRight, instance=TO_Specimen-1, generate
 17842,  20527,      1
*Nset, nset=FreezeUpperPin, instance=TO_Specimen-1
   11,   12,   13,   14,   27,   28,   29,   30,   31,   32,  143,  144,  145,  146,  147,  148
  149,  150,  151,  152,  153,  154,  155,  156,  157,  158,  159,  160,  161,  162,  163,  164
  165,  166,  439,  440,  441,  442,  443,  444,  445,  446,  447,  448,  449,  450,  451,  452
  453,  454,  455,  456,  457,  458,  459,  460,  461,  462,  463,  464,  465,  466,  467,  468
  469,  470,  471,  472,  473,  474,  475,  476,  477,  478,  479,  480,  481,  482,  483,  484
  485,  486,  487,  488,  489,  490,  491,  492,  493,  494,  495,  496,  497,  498,  499,  500
  501,  502,  503,  504,  505,  506,  507,  508,  509,  510,  511,  512,  513,  514,  515,  516
  517,  518,  900,  901,  902,  903,  904,  905,  906,  907,  908,  909,  910,  911,  912,  913
  914,  915,  916,  917,  918,  919,  920,  921,  922,  923,  924,  925,  926,  927,  928,  929
  930,  931,  932,  933,  934, 2111, 2112, 2113, 2114, 2115, 2116, 2117, 2118, 2119, 2120, 2121
 2122, 2123, 2124, 2125, 2126, 2127, 2128, 2129, 2130, 2131, 2132, 2133, 2134, 2135, 2136, 2137
 2138, 2139, 2140, 2141, 2142, 2143, 2144, 2145, 2146, 2147, 2148, 2149, 2150, 2151, 2152, 2153
 2154, 2155, 2156, 2157, 2158, 2159, 2160, 2161, 2162, 2163, 2164, 2165, 2166, 2167, 2168, 2169
 2170, 2171, 2172, 2173, 2174, 2175, 2176, 2177, 2178, 2179, 2180, 2181, 2182, 2183, 2184, 2185
 2186, 2187, 2188, 2189, 2190, 2191, 2192, 2193, 2194, 2195, 2196, 2197, 2198, 2199, 2200, 2201
 2202, 2203, 2204, 2205, 2206, 2207, 2208, 2209, 2210, 2211, 2212, 2213, 2214, 2215, 2216, 2217
 2218, 2219, 2220, 2221, 2222, 2223, 2224, 2225, 2226, 2227, 2228, 2229, 2230, 2231, 2232, 2233
 2234, 2235, 2236, 2237, 2238, 2239, 2240, 2241, 2242, 2243, 2244, 2245, 2246, 2247, 2248, 2249
 2250, 2251, 2252, 2253, 2254, 2255, 2256, 2257, 2258, 2259, 2260, 2261, 2262, 2263, 2264, 2265
 2266, 2267, 2268, 2269, 2270, 2271, 2272, 2273, 2274, 2275, 2276, 2277, 2278, 2279, 2280, 2281
 2282, 2283, 2284, 2285, 2286, 2287, 2288, 2289, 2290, 2291, 2292, 2293, 2294, 2295, 2296, 2297
 2298, 2299, 2300, 2301, 2302, 2303, 2304, 2305, 2306, 2307, 2308, 2309, 2310, 2311, 2312, 2313
 2314, 2315, 2316, 2317, 2318, 2319, 2320, 2321, 2322, 2323, 2324, 2325, 2326, 2327, 2328, 2329
 2330, 2331, 2332, 2333, 2334, 2335, 2336, 2337, 2338, 2339, 2340, 2341, 2342, 2343, 2344, 2345
 2346, 2347, 2348, 2349, 2350, 2351, 2352, 2353, 2354, 2355, 2356, 2357, 2358, 2359, 2360, 2361
 2362, 2363, 2364, 2365, 2366, 2367, 2368, 2369, 2370, 2371, 2372, 2373, 2374, 2375, 2376, 4232
 4233, 4234, 4235, 4236, 4237, 4238, 4239, 4240, 4241, 4242, 4243, 4244, 4245, 4246, 4247, 4248
 4249, 4250, 4251, 4252, 4253, 4254, 4255, 4256, 4257, 4258, 4259, 4260, 4261, 4262, 4263, 4264
 4265, 4266, 4267, 4268, 4269, 4270, 4271, 4272, 4273, 4274, 4275, 4276, 4277, 4278, 4279, 4280
 4281, 4282, 4283, 4284, 4285, 4286, 4287, 4288, 4289, 4290, 4291, 4292, 4293, 4294, 4295, 4296
 4297, 4298, 4299, 4300, 4301, 4302, 4303, 4304, 4305, 4306, 4307, 4308, 4309, 4310, 4311, 4312
 4313, 4314, 4315, 4316, 4317, 4318, 4319, 4320, 4321, 4322, 4323, 4324, 4325, 4326, 4327, 4328
 4329, 4330, 4331, 4332, 4333, 4334, 4335, 4336, 4337, 4338, 4339, 4340, 4341, 4342, 4343, 4344
 4345, 4346, 4347, 4348, 4349, 4350, 4351, 4352, 4353, 4354, 4355, 4356, 4357, 4358, 4359, 4360
 4361, 4362, 4363, 4364, 4365, 4366, 4367, 4368, 4369, 4370, 4371, 4372, 4373, 4374, 4375, 4376
 4377, 4378, 4379, 4380, 4381, 4382, 4383, 4384, 4385, 4386, 4387, 4388, 4389, 4390, 4391, 4392
 4393, 4394, 4395, 4396, 4397, 4398, 4399, 4400, 4401, 4402, 4403, 4404, 4405, 4406, 4407, 4408
 4409, 4410, 4411, 4412, 4413, 4414, 4415, 4416, 4417, 4418, 4419, 4420, 4421, 4422, 4423, 4424
 4425, 4426, 4427, 4428, 4429, 4430, 4431, 4432, 4433, 4434, 4435, 4436, 4437, 4438, 4439, 4440
 4441, 4442, 4443, 4444, 4445, 4446, 4447, 4448, 4449, 4450, 4451, 4452, 4453, 4454, 4455, 4456
 4457, 4458, 4459, 4460, 4461, 4462, 4463, 4464, 4465, 4466, 4467, 4468, 4469, 4470, 4471, 4472
 4473, 4474, 4475, 4476, 4477, 4478, 4479, 4480, 4481, 4482, 4483, 4484, 4485, 4486, 4487, 4488
 4489, 4490, 4491, 4492, 4493, 4494, 4495, 4496
*Elset, elset=FreezeUpperPin, instance=TO_Specimen-1, generate
 15108,  17841,      1
*Nset, nset=LowerLeftPinHole, instance=TO_Specimen-1
   9,  10, 119, 120, 121, 122, 123, 124, 125, 126, 127, 128, 129, 130, 131, 132
 133, 134, 135, 136, 137, 138, 139, 140, 141, 142, 835, 836, 837, 838, 839, 840
 841, 842, 843, 844, 845, 846, 847, 848, 849, 850, 851, 852, 853, 854, 855, 856
 857, 858, 859, 860, 861, 862, 863, 864, 865, 866, 867, 868, 869, 870, 871, 872
 873, 874, 875, 876, 877, 878, 879, 880, 881, 882, 883, 884, 885, 886, 887, 888
 889, 890, 891, 892, 893, 894, 895, 896, 897, 898, 899
*Elset, elset=LowerLeftPinHole, instance=TO_Specimen-1
   42,  207,  288,  289,  302,  400,  542,  662,  735,  740,  763,  806,  849,  923,  961,  965
  968, 1104, 1156, 1168, 1231, 1328, 1439, 1443, 1445, 1456, 1462, 1466, 1527, 1537, 1542, 1576
 1586, 1597, 1625, 1632, 1638, 1641, 1658, 1669, 1674, 1680, 1691, 1702, 1715, 1716, 1717, 1728
 1733, 1743, 1748, 1760, 1766, 1771, 1774, 1783, 1785, 1789, 1815, 1816, 1820, 1825, 1828, 1829
 1833, 1838, 1843, 1844, 1850, 1860, 1873, 1882, 1889, 1897, 1899, 1900, 1911, 1912, 1916, 1919
 1929, 1931, 1936, 1937, 1944, 1953, 1962, 1965, 1970, 1974, 1981, 1983, 1989, 1991, 1996, 1999
 2000, 2002, 2005, 2006, 2011, 2014, 2020, 2027, 2040, 2053, 2057, 2067, 2087, 2090, 2096, 2098
 2100, 2101, 2105, 2109, 2111, 2124, 2129, 2137, 2146, 2153, 2169, 2171, 2175, 2184, 2192, 2193
 2244, 2246, 2249, 2278, 2283, 2285, 2295, 2300, 2311, 2316, 2333, 2343, 2356, 2363, 2365, 2397
 2404, 2407, 2437, 2442, 2450, 2452, 2495, 2504, 2524, 2578, 2631, 2641
*Nset, nset=LowerRightPinHole, instance=TO_Specimen-1
   33,   34,  519,  520,  521,  522,  523,  524,  525,  526,  527,  528,  529,  530,  531,  532
  533,  534,  535,  536,  537,  538,  539,  540,  541,  542, 2377, 2378, 2379, 2380, 2381, 2382
 2383, 2384, 2385, 2386, 2387, 2388, 2389, 2390, 2391, 2392, 2393, 2394, 2395, 2396, 2397, 2398
 2399, 2400, 2401, 2402, 2403, 2404, 2405, 2406, 2407, 2408, 2409, 2410, 2411, 2412, 2413, 2414
 2415, 2416, 2417, 2418, 2419, 2420, 2421, 2422, 2423, 2424, 2425, 2426, 2427, 2428, 2429, 2430
 2431, 2432, 2433, 2434, 2435, 2436, 2437, 2438, 2439, 2440, 2441
*Elset, elset=LowerRightPinHole, instance=TO_Specimen-1
 17869, 18006, 18025, 18174, 18204, 18258, 18268, 18384, 18474, 18503, 18512, 18526, 18612, 18624, 18646, 18668
 18860, 18891, 19055, 19081, 19169, 19186, 19217, 19222, 19238, 19306, 19315, 19317, 19319, 19356, 19406, 19461
 19462, 19465, 19480, 19481, 19482, 19486, 19492, 19497, 19504, 19512, 19532, 19542, 19550, 19561, 19564, 19575
 19589, 19591, 19605, 19611, 19620, 19625, 19626, 19633, 19643, 19648, 19649, 19650, 19652, 19663, 19665, 19669
 19698, 19707, 19718, 19727, 19730, 19748, 19749, 19758, 19760, 19761, 19769, 19774, 19776, 19787, 19793, 19797
 19799, 19801, 19814, 19822, 19824, 19825, 19830, 19831, 19833, 19849, 19867, 19869, 19893, 19895, 19896, 19902
 19909, 19918, 19926, 19935, 19938, 19954, 19955, 19956, 19957, 19978, 19982, 19987, 19989, 19990, 19996, 20002
 20006, 20007, 20008, 20020, 20032, 20037, 20038, 20045, 20049, 20056, 20057, 20061, 20064, 20088, 20089, 20100
 20106, 20118, 20127, 20132, 20150, 20173, 20180, 20183, 20188, 20212, 20223, 20261, 20285, 20290, 20296, 20297
 20340, 20343, 20359, 20361, 20435, 20442, 20449, 20475, 20496, 20499, 20505, 20513
*Nset, nset=UpperPinHole, instance=TO_Specimen-1
   31,   32,  463,  464,  465,  466,  467,  468,  469,  470,  471,  472,  473,  474,  475,  476
  477,  478,  479,  480,  481,  482,  483,  484,  485,  486, 2146, 2147, 2148, 2149, 2150, 2151
 2152, 2153, 2154, 2155, 2156, 2157, 2158, 2159, 2160, 2161, 2162, 2163, 2164, 2165, 2166, 2167
 2168, 2169, 2170, 2171, 2172, 2173, 2174, 2175, 2176, 2177, 2178, 2179, 2180, 2181, 2182, 2183
 2184, 2185, 2186, 2187, 2188, 2189, 2190, 2191, 2192, 2193, 2194, 2195, 2196, 2197, 2198, 2199
 2200, 2201, 2202, 2203, 2204, 2205, 2206, 2207, 2208, 2209, 2210
*Elset, elset=UpperPinHole, instance=TO_Specimen-1
 15222, 15336, 15560, 15566, 15736, 15753, 15775, 16160, 16200, 16292, 16308, 16402, 16433, 16458, 16601, 16683
 16696, 16756, 16781, 16826, 16843, 16844, 16882, 16897, 16923, 16940, 16943, 16945, 16958, 16996, 17000, 17004
 17006, 17012, 17013, 17027, 17043, 17049, 17087, 17090, 17109, 17129, 17130, 17136, 17140, 17143, 17151, 17182
 17195, 17198, 17208, 17215, 17217, 17228, 17229, 17232, 17235, 17251, 17256, 17267, 17276, 17278, 17280, 17284
 17288, 17289, 17292, 17299, 17302, 17303, 17319, 17333, 17336, 17351, 17359, 17363, 17365, 17375, 17376, 17379
 17380, 17381, 17383, 17384, 17387, 17406, 17409, 17414, 17426, 17436, 17437, 17438, 17442, 17451, 17454, 17458
 17464, 17465, 17470, 17471, 17474, 17478, 17479, 17501, 17502, 17506, 17509, 17519, 17522, 17526, 17535, 17536
 17545, 17548, 17555, 17568, 17571, 17575, 17584, 17586, 17594, 17601, 17605, 17607, 17610, 17611, 17612, 17621
 17628, 17631, 17634, 17636, 17640, 17646, 17655, 17657, 17667, 17672, 17673, 17674, 17683, 17685, 17730, 17733
 17763, 17774, 17779, 17786, 17802, 17804, 17806, 17816, 17824, 17827, 17831, 17837
*Nset, nset=UpperRP
 1,
*Elset, elset=_UpperPinSurface_S2, internal, instance=TO_Specimen-1
 15222, 16458, 17013, 17136, 17251, 17267, 17278, 17478, 17575, 17636, 17802
*Elset, elset=_UpperPinSurface_S3, internal, instance=TO_Specimen-1
 15336, 15566, 15736, 15775, 16160, 16200, 16292, 16402, 16433, 16601, 16683, 16696, 16756, 16781, 16826, 16843
 16844, 16882, 16897, 16923, 16940, 16943, 16945, 16958, 17000, 17004, 17006, 17012, 17027, 17043, 17049, 17090
 17109, 17130, 17143, 17151, 17182, 17195, 17198, 17208, 17215, 17217, 17229, 17232, 17235, 17256, 17276, 17280
 17289, 17292, 17299, 17302, 17303, 17319, 17333, 17336, 17351, 17359, 17363, 17365, 17375, 17376, 17379, 17380
 17381, 17383, 17384, 17387, 17406, 17409, 17414, 17426, 17436, 17437, 17438, 17442, 17451, 17454, 17458, 17465
 17470, 17471, 17474, 17479, 17501, 17502, 17506, 17509, 17522, 17526, 17535, 17536, 17545, 17548, 17555, 17568
 17571, 17584, 17586, 17594, 17601, 17605, 17607, 17610, 17611, 17612, 17621, 17628, 17631, 17634, 17640, 17655
 17657, 17672, 17673, 17674, 17683, 17685, 17730, 17733, 17763, 17779, 17786, 17804, 17806, 17816, 17824, 17827
 17831, 17837
*Elset, elset=_UpperPinSurface_S1, internal, instance=TO_Specimen-1
 15560, 15753, 16308, 16996, 17087, 17129, 17228, 17464, 17519, 17646
*Elset, elset=_UpperPinSurface_S4, internal, instance=TO_Specimen-1
 17140, 17284, 17288, 17667, 17774
*Surface, type=ELEMENT, name=UpperPinSurface
_UpperPinSurface_S2, S2
_UpperPinSurface_S3, S3
_UpperPinSurface_S4, S4
_UpperPinSurface_S1, S1
** Constraint: UpperPinCoupling
*Coupling, constraint name=UpperPinCoupling, ref node=UpperRP, surface=UpperPinSurface
*Kinematic
*End Assembly
** 
** MATERIALS
** 
*Material, name=IN718
*Density
 8.19e-09,
*Elastic
200000., 0.3
** 
** BOUNDARY CONDITIONS
** 
** Name: LowerLeftPin_BC Type: Displacement/Rotation
*Boundary
LowerLeftPinHole, 2, 2
LowerLeftPinHole, 3, 3
** Name: LowerRightPin_BC Type: Displacement/Rotation
*Boundary
LowerRightPinHole, 2, 2
LowerRightPinHole, 3, 3
** ----------------------------------------------------------------
** 
** STEP: LoadStep
** 
*Step, name=LoadStep, nlgeom=NO
*Static
1., 1., 1e-06, 1.
** 
** LOADS
** 
** Name: VerticalLoad_20kN   Type: Concentrated force
*Cload
UpperRP, 2, 20000.
** 
** OUTPUT REQUESTS
** 
*Restart, write, frequency=0
** 
** FIELD OUTPUT: F-Output-1
** 
*Output, field
*Node Output
RF, U
*Element Output, directions=YES
ENER, S
** 
** HISTORY OUTPUT: H-Output-1
** 
*Output, history, variable=PRESELECT
*End Step
