*Heading
** Job name: airbeam_FEA Model name: airbeam
** Generated by: Abaqus/CAE 2025
*Preprint, echo=NO, model=NO, history=NO, contact=NO
**
** PARTS
**
*Part, name=PART-1
*Node
      1,           0.,           0.
      2,  0.798165977,           0.
      3,   1.59633005,           0.
      4,      2.39449,           0.
      5,   3.19266009,           0.
      6,   3.99081993,           0.
      7,   4.78899002,           0.
      8,    5.5871501,           0.
      9,   6.38532019,           0.
     10,   7.18347979,           0.
     11,   7.98164988,           0.
     12,   8.77980995,           0.
     13,   9.57798004,           0.
     14,   10.3760996,           0.
     15,   11.1743002,           0.
     16,   11.9723997,           0.
     17,   12.7706003,           0.
     18,      13.5688,           0.
     19,   14.3669004,           0.
     20,   15.1651001,           0.
     21,   15.9631996,           0.
     22,   16.7614002,           0.
     23,   17.5596008,           0.
     24,   18.3577003,           0.
     25,    19.155899,           0.
     26,   19.9540997,           0.
     27,   20.7521992,           0.
     28,   21.5503998,           0.
     29,   22.3486004,           0.
     30,   23.1466999,           0.
     31,   23.9449005,           0.
     32,   24.7430992,           0.
     33,   25.5412006,           0.
     34,   26.3393993,           0.
     35,   27.1375999,           0.
     36,   27.9356995,           0.
     37,   28.7339001,           0.
     38,   29.5319996,           0.
     39,   30.3302002,           0.
     40,   31.1284008,           0.
     41,   31.9265003,           0.
     42,   32.7247009,           0.
     43,   33.5228996,           0.
     44,   34.3209991,           0.
     45,   35.1192017,           0.
     46,   35.9174004,           0.
     47,   36.7154999,           0.
     48,   37.5136986,           0.
     49,   38.3119011,           0.
     50,   39.1100006,           0.
     51,   39.9081993,           0.
     52,   40.7064018,           0.
     53,   41.5045013,           0.
     54,      42.3027,           0.
     55,   43.1008987,           0.
     56,   43.8989983,           0.
     57,   44.6972008,           0.
     58,   45.4953003,           0.
     59,    46.293499,           0.
     60,   47.0917015,           0.
     61,    47.889801,           0.
     62,   48.6879997,           0.
     63,   49.4861984,           0.
     64,   50.2843018,           0.
     65,   51.0825005,           0.
     66,   51.8806992,           0.
     67,   52.6787987,           0.
     68,   53.4770012,           0.
     69,   54.2751999,           0.
     70,   55.0732994,           0.
     71,   55.8714981,           0.
     72,   56.6697006,           0.
     73,   57.4678001,           0.
     74,   58.2659988,           0.
     75,   59.0642014,           0.
     76,   59.8623009,           0.
     77,   60.6604996,           0.
     78,   61.4586983,           0.
     79,   62.2568016,           0.
     80,   63.0550003,           0.
     81,   63.8530998,           0.
     82,   64.6512985,           0.
     83,    65.449501,           0.
     84,   66.2475967,           0.
     85,   67.0457993,           0.
     86,   67.8440018,           0.
     87,   68.6420975,           0.
     88,      69.4403,           0.
     89,   70.2385025,           0.
     90,   71.0365982,           0.
     91,   71.8348007,           0.
     92,   72.6330032,           0.
     93,   73.4310989,           0.
     94,   74.2293015,           0.
     95,   75.0274963,           0.
     96,   75.8255997,           0.
     97,   76.6238022,           0.
     98,   77.4219971,           0.
     99,   78.2201004,           0.
    100,   79.0183029,           0.
    101,   79.8163986,           0.
    102,   80.6146011,           0.
    103,   81.4128036,           0.
    104,   82.2108994,           0.
    105,   83.0091019,           0.
    106,   83.8072968,           0.
    107,   84.6054001,           0.
    108,   85.4036026,           0.
    109,   86.2017975,           0.
    110,          87.,           0.
    111,           0.,  0.805555999
    112,  0.798165977,  0.805555999
    113,   1.59633005,  0.805555999
    114,      2.39449,  0.805555999
    115,   3.19266009,  0.805555999
    116,   3.99081993,  0.805555999
    117,   4.78899002,  0.805555999
    118,    5.5871501,  0.805555999
    119,   6.38532019,  0.805555999
    120,   7.18347979,  0.805555999
    121,   7.98164988,  0.805555999
    122,   8.77980995,  0.805555999
    123,   9.57798004,  0.805555999
    124,   10.3760996,  0.805555999
    125,   11.1743002,  0.805555999
    126,   11.9723997,  0.805555999
    127,   12.7706003,  0.805555999
    128,      13.5688,  0.805555999
    129,   14.3669004,  0.805555999
    130,   15.1651001,  0.805555999
    131,   15.9631996,  0.805555999
    132,   16.7614002,  0.805555999
    133,   17.5596008,  0.805555999
    134,   18.3577003,  0.805555999
    135,    19.155899,  0.805555999
    136,   19.9540997,  0.805555999
    137,   20.7521992,  0.805555999
    138,   21.5503998,  0.805555999
    139,   22.3486004,  0.805555999
    140,   23.1466999,  0.805555999
    141,   23.9449005,  0.805555999
    142,   24.7430992,  0.805555999
    143,   25.5412006,  0.805555999
    144,   26.3393993,  0.805555999
    145,   27.1375999,  0.805555999
    146,   27.9356995,  0.805555999
    147,   28.7339001,  0.805555999
    148,   29.5319996,  0.805555999
    149,   30.3302002,  0.805555999
    150,   31.1284008,  0.805555999
    151,   31.9265003,  0.805555999
    152,   32.7247009,  0.805555999
    153,   33.5228996,  0.805555999
    154,   34.3209991,  0.805555999
    155,   35.1192017,  0.805555999
    156,   35.9174004,  0.805555999
    157,   36.7154999,  0.805555999
    158,   37.5136986,  0.805555999
    159,   38.3119011,  0.805555999
    160,   39.1100006,  0.805555999
    161,   39.9081993,  0.805555999
    162,   40.7064018,  0.805555999
    163,   41.5045013,  0.805555999
    164,      42.3027,  0.805555999
    165,   43.1008987,  0.805555999
    166,   43.8989983,  0.805555999
    167,   44.6972008,  0.805555999
    168,   45.4953003,  0.805555999
    169,    46.293499,  0.805555999
    170,   47.0917015,  0.805555999
    171,    47.889801,  0.805555999
    172,   48.6879997,  0.805555999
    173,   49.4861984,  0.805555999
    174,   50.2843018,  0.805555999
    175,   51.0825005,  0.805555999
    176,   51.8806992,  0.805555999
    177,   52.6787987,  0.805555999
    178,   53.4770012,  0.805555999
    179,   54.2751999,  0.805555999
    180,   55.0732994,  0.805555999
    181,   55.8714981,  0.805555999
    182,   56.6697006,  0.805555999
    183,   57.4678001,  0.805555999
    184,   58.2659988,  0.805555999
    185,   59.0642014,  0.805555999
    186,   59.8623009,  0.805555999
    187,   60.6604996,  0.805555999
    188,   61.4586983,  0.805555999
    189,   62.2568016,  0.805555999
    190,   63.0550003,  0.805555999
    191,   63.8530998,  0.805555999
    192,   64.6512985,  0.805555999
    193,    65.449501,  0.805555999
    194,   66.2475967,  0.805555999
    195,   67.0457993,  0.805555999
    196,   67.8440018,  0.805555999
    197,   68.6420975,  0.805555999
    198,      69.4403,  0.805555999
    199,   70.2385025,  0.805555999
    200,   71.0365982,  0.805555999
    201,   71.8348007,  0.805555999
    202,   72.6330032,  0.805555999
    203,   73.4310989,  0.805555999
    204,   74.2293015,  0.805555999
    205,   75.0274963,  0.805555999
    206,   75.8255997,  0.805555999
    207,   76.6238022,  0.805555999
    208,   77.4219971,  0.805555999
    209,   78.2201004,  0.805555999
    210,   79.0183029,  0.805555999
    211,   79.8163986,  0.805555999
    212,   80.6146011,  0.805555999
    213,   81.4128036,  0.805555999
    214,   82.2108994,  0.805555999
    215,   83.0091019,  0.805555999
    216,   83.8072968,  0.805555999
    217,   84.6054001,  0.805555999
    218,   85.4036026,  0.805555999
    219,   86.2017975,  0.805555999
    220,          87.,  0.805555999
    221,           0.,   1.61110997
    222,  0.798165977,   1.61110997
    223,   1.59633005,   1.61110997
    224,      2.39449,   1.61110997
    225,   3.19266009,   1.61110997
    226,   3.99081993,   1.61110997
    227,   4.78899002,   1.61110997
    228,    5.5871501,   1.61110997
    229,   6.38532019,   1.61110997
    230,   7.18347979,   1.61110997
    231,   7.98164988,   1.61110997
    232,   8.77980995,   1.61110997
    233,   9.57798004,   1.61110997
    234,   10.3760996,   1.61110997
    235,   11.1743002,   1.61110997
    236,   11.9723997,   1.61110997
    237,   12.7706003,   1.61110997
    238,      13.5688,   1.61110997
    239,   14.3669004,   1.61110997
    240,   15.1651001,   1.61110997
    241,   15.9631996,   1.61110997
    242,   16.7614002,   1.61110997
    243,   17.5596008,   1.61110997
    244,   18.3577003,   1.61110997
    245,    19.155899,   1.61110997
    246,   19.9540997,   1.61110997
    247,   20.7521992,   1.61110997
    248,   21.5503998,   1.61110997
    249,   22.3486004,   1.61110997
    250,   23.1466999,   1.61110997
    251,   23.9449005,   1.61110997
    252,   24.7430992,   1.61110997
    253,   25.5412006,   1.61110997
    254,   26.3393993,   1.61110997
    255,   27.1375999,   1.61110997
    256,   27.9356995,   1.61110997
    257,   28.7339001,   1.61110997
    258,   29.5319996,   1.61110997
    259,   30.3302002,   1.61110997
    260,   31.1284008,   1.61110997
    261,   31.9265003,   1.61110997
    262,   32.7247009,   1.61110997
    263,   33.5228996,   1.61110997
    264,   34.3209991,   1.61110997
    265,   35.1192017,   1.61110997
    266,   35.9174004,   1.61110997
    267,   36.7154999,   1.61110997
    268,   37.5136986,   1.61110997
    269,   38.3119011,   1.61110997
    270,   39.1100006,   1.61110997
    271,   39.9081993,   1.61110997
    272,   40.7064018,   1.61110997
    273,   41.5045013,   1.61110997
    274,      42.3027,   1.61110997
    275,   43.1008987,   1.61110997
    276,   43.8989983,   1.61110997
    277,   44.6972008,   1.61110997
    278,   45.4953003,   1.61110997
    279,    46.293499,   1.61110997
    280,   47.0917015,   1.61110997
    281,    47.889801,   1.61110997
    282,   48.6879997,   1.61110997
    283,   49.4861984,   1.61110997
    284,   50.2843018,   1.61110997
    285,   51.0825005,   1.61110997
    286,   51.8806992,   1.61110997
    287,   52.6787987,   1.61110997
    288,   53.4770012,   1.61110997
    289,   54.2751999,   1.61110997
    290,   55.0732994,   1.61110997
    291,   55.8714981,   1.61110997
    292,   56.6697006,   1.61110997
    293,   57.4678001,   1.61110997
    294,   58.2659988,   1.61110997
    295,   59.0642014,   1.61110997
    296,   59.8623009,   1.61110997
    297,   60.6604996,   1.61110997
    298,   61.4586983,   1.61110997
    299,   62.2568016,   1.61110997
    300,   63.0550003,   1.61110997
    301,   63.8530998,   1.61110997
    302,   64.6512985,   1.61110997
    303,    65.449501,   1.61110997
    304,   66.2475967,   1.61110997
    305,   67.0457993,   1.61110997
    306,   67.8440018,   1.61110997
    307,   68.6420975,   1.61110997
    308,      69.4403,   1.61110997
    309,   70.2385025,   1.61110997
    310,   71.0365982,   1.61110997
    311,   71.8348007,   1.61110997
    312,   72.6330032,   1.61110997
    313,   73.4310989,   1.61110997
    314,   74.2293015,   1.61110997
    315,   75.0274963,   1.61110997
    316,   75.8255997,   1.61110997
    317,   76.6238022,   1.61110997
    318,   77.4219971,   1.61110997
    319,   78.2201004,   1.61110997
    320,   79.0183029,   1.61110997
    321,   79.8163986,   1.61110997
    322,   80.6146011,   1.61110997
    323,   81.4128036,   1.61110997
    324,   82.2108994,   1.61110997
    325,   83.0091019,   1.61110997
    326,   83.8072968,   1.61110997
    327,   84.6054001,   1.61110997
    328,   85.4036026,   1.61110997
    329,   86.2017975,   1.61110997
    330,          87.,   1.61110997
    331,           0.,   2.41666007
    332,  0.798165977,   2.41666007
    333,   1.59633005,   2.41666007
    334,      2.39449,   2.41666007
    335,   3.19266009,   2.41666007
    336,   3.99081993,   2.41666007
    337,   4.78899002,   2.41666007
    338,    5.5871501,   2.41666007
    339,   6.38532019,   2.41666007
    340,   7.18347979,   2.41666007
    341,   7.98164988,   2.41666007
    342,   8.77980995,   2.41666007
    343,   9.57798004,   2.41666007
    344,   10.3760996,   2.41666007
    345,   11.1743002,   2.41666007
    346,   11.9723997,   2.41666007
    347,   12.7706003,   2.41666007
    348,      13.5688,   2.41666007
    349,   14.3669004,   2.41666007
    350,   15.1651001,   2.41666007
    351,   15.9631996,   2.41666007
    352,   16.7614002,   2.41666007
    353,   17.5596008,   2.41666007
    354,   18.3577003,   2.41666007
    355,    19.155899,   2.41666007
    356,   19.9540997,   2.41666007
    357,   20.7521992,   2.41666007
    358,   21.5503998,   2.41666007
    359,   22.3486004,   2.41666007
    360,   23.1466999,   2.41666007
    361,   23.9449005,   2.41666007
    362,   24.7430992,   2.41666007
    363,   25.5412006,   2.41666007
    364,   26.3393993,   2.41666007
    365,   27.1375999,   2.41666007
    366,   27.9356995,   2.41666007
    367,   28.7339001,   2.41666007
    368,   29.5319996,   2.41666007
    369,   30.3302002,   2.41666007
    370,   31.1284008,   2.41666007
    371,   31.9265003,   2.41666007
    372,   32.7247009,   2.41666007
    373,   33.5228996,   2.41666007
    374,   34.3209991,   2.41666007
    375,   35.1192017,   2.41666007
    376,   35.9174004,   2.41666007
    377,   36.7154999,   2.41666007
    378,   37.5136986,   2.41666007
    379,   38.3119011,   2.41666007
    380,   39.1100006,   2.41666007
    381,   39.9081993,   2.41666007
    382,   40.7064018,   2.41666007
    383,   41.5045013,   2.41666007
    384,      42.3027,   2.41666007
    385,   43.1008987,   2.41666007
    386,   43.8989983,   2.41666007
    387,   44.6972008,   2.41666007
    388,   45.4953003,   2.41666007
    389,    46.293499,   2.41666007
    390,   47.0917015,   2.41666007
    391,    47.889801,   2.41666007
    392,   48.6879997,   2.41666007
    393,   49.4861984,   2.41666007
    394,   50.2843018,   2.41666007
    395,   51.0825005,   2.41666007
    396,   51.8806992,   2.41666007
    397,   52.6787987,   2.41666007
    398,   53.4770012,   2.41666007
    399,   54.2751999,   2.41666007
    400,   55.0732994,   2.41666007
    401,   55.8714981,   2.41666007
    402,   56.6697006,   2.41666007
    403,   57.4678001,   2.41666007
    404,   58.2659988,   2.41666007
    405,   59.0642014,   2.41666007
    406,   59.8623009,   2.41666007
    407,   60.6604996,   2.41666007
    408,   61.4586983,   2.41666007
    409,   62.2568016,   2.41666007
    410,   63.0550003,   2.41666007
    411,   63.8530998,   2.41666007
    412,   64.6512985,   2.41666007
    413,    65.449501,   2.41666007
    414,   66.2475967,   2.41666007
    415,   67.0457993,   2.41666007
    416,   67.8440018,   2.41666007
    417,   68.6420975,   2.41666007
    418,      69.4403,   2.41666007
    419,   70.2385025,   2.41666007
    420,   71.0365982,   2.41666007
    421,   71.8348007,   2.41666007
    422,   72.6330032,   2.41666007
    423,   73.4310989,   2.41666007
    424,   74.2293015,   2.41666007
    425,   75.0274963,   2.41666007
    426,   75.8255997,   2.41666007
    427,   76.6238022,   2.41666007
    428,   77.4219971,   2.41666007
    429,   78.2201004,   2.41666007
    430,   79.0183029,   2.41666007
    431,   79.8163986,   2.41666007
    432,   80.6146011,   2.41666007
    433,   81.4128036,   2.41666007
    434,   82.2108994,   2.41666007
    435,   83.0091019,   2.41666007
    436,   83.8072968,   2.41666007
    437,   84.6054001,   2.41666007
    438,   85.4036026,   2.41666007
    439,   86.2017975,   2.41666007
    440,          87.,   2.41666007
    441,           0.,   3.22221994
    442,  0.798165977,   3.22221994
    443,   1.59633005,   3.22221994
    444,      2.39449,   3.22221994
    445,   3.19266009,   3.22221994
    446,   3.99081993,   3.22221994
    447,   4.78899002,   3.22221994
    448,    5.5871501,   3.22221994
    449,   6.38532019,   3.22221994
    450,   7.18347979,   3.22221994
    451,   7.98164988,   3.22221994
    452,   8.77980995,   3.22221994
    453,   9.57798004,   3.22221994
    454,   10.3760996,   3.22221994
    455,   11.1743002,   3.22221994
    456,   11.9723997,   3.22221994
    457,   12.7706003,   3.22221994
    458,      13.5688,   3.22221994
    459,   14.3669004,   3.22221994
    460,   15.1651001,   3.22221994
    461,   15.9631996,   3.22221994
    462,   16.7614002,   3.22221994
    463,   17.5596008,   3.22221994
    464,   18.3577003,   3.22221994
    465,    19.155899,   3.22221994
    466,   19.9540997,   3.22221994
    467,   20.7521992,   3.22221994
    468,   21.5503998,   3.22221994
    469,   22.3486004,   3.22221994
    470,   23.1466999,   3.22221994
    471,   23.9449005,   3.22221994
    472,   24.7430992,   3.22221994
    473,   25.5412006,   3.22221994
    474,   26.3393993,   3.22221994
    475,   27.1375999,   3.22221994
    476,   27.9356995,   3.22221994
    477,   28.7339001,   3.22221994
    478,   29.5319996,   3.22221994
    479,   30.3302002,   3.22221994
    480,   31.1284008,   3.22221994
    481,   31.9265003,   3.22221994
    482,   32.7247009,   3.22221994
    483,   33.5228996,   3.22221994
    484,   34.3209991,   3.22221994
    485,   35.1192017,   3.22221994
    486,   35.9174004,   3.22221994
    487,   36.7154999,   3.22221994
    488,   37.5136986,   3.22221994
    489,   38.3119011,   3.22221994
    490,   39.1100006,   3.22221994
    491,   39.9081993,   3.22221994
    492,   40.7064018,   3.22221994
    493,   41.5045013,   3.22221994
    494,      42.3027,   3.22221994
    495,   43.1008987,   3.22221994
    496,   43.8989983,   3.22221994
    497,   44.6972008,   3.22221994
    498,   45.4953003,   3.22221994
    499,    46.293499,   3.22221994
    500,   47.0917015,   3.22221994
    501,    47.889801,   3.22221994
    502,   48.6879997,   3.22221994
    503,   49.4861984,   3.22221994
    504,   50.2843018,   3.22221994
    505,   51.0825005,   3.22221994
    506,   51.8806992,   3.22221994
    507,   52.6787987,   3.22221994
    508,   53.4770012,   3.22221994
    509,   54.2751999,   3.22221994
    510,   55.0732994,   3.22221994
    511,   55.8714981,   3.22221994
    512,   56.6697006,   3.22221994
    513,   57.4678001,   3.22221994
    514,   58.2659988,   3.22221994
    515,   59.0642014,   3.22221994
    516,   59.8623009,   3.22221994
    517,   60.6604996,   3.22221994
    518,   61.4586983,   3.22221994
    519,   62.2568016,   3.22221994
    520,   63.0550003,   3.22221994
    521,   63.8530998,   3.22221994
    522,   64.6512985,   3.22221994
    523,    65.449501,   3.22221994
    524,   66.2475967,   3.22221994
    525,   67.0457993,   3.22221994
    526,   67.8440018,   3.22221994
    527,   68.6420975,   3.22221994
    528,      69.4403,   3.22221994
    529,   70.2385025,   3.22221994
    530,   71.0365982,   3.22221994
    531,   71.8348007,   3.22221994
    532,   72.6330032,   3.22221994
    533,   73.4310989,   3.22221994
    534,   74.2293015,   3.22221994
    535,   75.0274963,   3.22221994
    536,   75.8255997,   3.22221994
    537,   76.6238022,   3.22221994
    538,   77.4219971,   3.22221994
    539,   78.2201004,   3.22221994
    540,   79.0183029,   3.22221994
    541,   79.8163986,   3.22221994
    542,   80.6146011,   3.22221994
    543,   81.4128036,   3.22221994
    544,   82.2108994,   3.22221994
    545,   83.0091019,   3.22221994
    546,   83.8072968,   3.22221994
    547,   84.6054001,   3.22221994
    548,   85.4036026,   3.22221994
    549,   86.2017975,   3.22221994
    550,          87.,   3.22221994
    551,           0.,   4.02778006
    552,  0.798165977,   4.02778006
    553,   1.59633005,   4.02778006
    554,      2.39449,   4.02778006
    555,   3.19266009,   4.02778006
    556,   3.99081993,   4.02778006
    557,   4.78899002,   4.02778006
    558,    5.5871501,   4.02778006
    559,   6.38532019,   4.02778006
    560,   7.18347979,   4.02778006
    561,   7.98164988,   4.02778006
    562,   8.77980995,   4.02778006
    563,   9.57798004,   4.02778006
    564,   10.3760996,   4.02778006
    565,   11.1743002,   4.02778006
    566,   11.9723997,   4.02778006
    567,   12.7706003,   4.02778006
    568,      13.5688,   4.02778006
    569,   14.3669004,   4.02778006
    570,   15.1651001,   4.02778006
    571,   15.9631996,   4.02778006
    572,   16.7614002,   4.02778006
    573,   17.5596008,   4.02778006
    574,   18.3577003,   4.02778006
    575,    19.155899,   4.02778006
    576,   19.9540997,   4.02778006
    577,   20.7521992,   4.02778006
    578,   21.5503998,   4.02778006
    579,   22.3486004,   4.02778006
    580,   23.1466999,   4.02778006
    581,   23.9449005,   4.02778006
    582,   24.7430992,   4.02778006
    583,   25.5412006,   4.02778006
    584,   26.3393993,   4.02778006
    585,   27.1375999,   4.02778006
    586,   27.9356995,   4.02778006
    587,   28.7339001,   4.02778006
    588,   29.5319996,   4.02778006
    589,   30.3302002,   4.02778006
    590,   31.1284008,   4.02778006
    591,   31.9265003,   4.02778006
    592,   32.7247009,   4.02778006
    593,   33.5228996,   4.02778006
    594,   34.3209991,   4.02778006
    595,   35.1192017,   4.02778006
    596,   35.9174004,   4.02778006
    597,   36.7154999,   4.02778006
    598,   37.5136986,   4.02778006
    599,   38.3119011,   4.02778006
    600,   39.1100006,   4.02778006
    601,   39.9081993,   4.02778006
    602,   40.7064018,   4.02778006
    603,   41.5045013,   4.02778006
    604,      42.3027,   4.02778006
    605,   43.1008987,   4.02778006
    606,   43.8989983,   4.02778006
    607,   44.6972008,   4.02778006
    608,   45.4953003,   4.02778006
    609,    46.293499,   4.02778006
    610,   47.0917015,   4.02778006
    611,    47.889801,   4.02778006
    612,   48.6879997,   4.02778006
    613,   49.4861984,   4.02778006
    614,   50.2843018,   4.02778006
    615,   51.0825005,   4.02778006
    616,   51.8806992,   4.02778006
    617,   52.6787987,   4.02778006
    618,   53.4770012,   4.02778006
    619,   54.2751999,   4.02778006
    620,   55.0732994,   4.02778006
    621,   55.8714981,   4.02778006
    622,   56.6697006,   4.02778006
    623,   57.4678001,   4.02778006
    624,   58.2659988,   4.02778006
    625,   59.0642014,   4.02778006
    626,   59.8623009,   4.02778006
    627,   60.6604996,   4.02778006
    628,   61.4586983,   4.02778006
    629,   62.2568016,   4.02778006
    630,   63.0550003,   4.02778006
    631,   63.8530998,   4.02778006
    632,   64.6512985,   4.02778006
    633,    65.449501,   4.02778006
    634,   66.2475967,   4.02778006
    635,   67.0457993,   4.02778006
    636,   67.8440018,   4.02778006
    637,   68.6420975,   4.02778006
    638,      69.4403,   4.02778006
    639,   70.2385025,   4.02778006
    640,   71.0365982,   4.02778006
    641,   71.8348007,   4.02778006
    642,   72.6330032,   4.02778006
    643,   73.4310989,   4.02778006
    644,   74.2293015,   4.02778006
    645,   75.0274963,   4.02778006
    646,   75.8255997,   4.02778006
    647,   76.6238022,   4.02778006
    648,   77.4219971,   4.02778006
    649,   78.2201004,   4.02778006
    650,   79.0183029,   4.02778006
    651,   79.8163986,   4.02778006
    652,   80.6146011,   4.02778006
    653,   81.4128036,   4.02778006
    654,   82.2108994,   4.02778006
    655,   83.0091019,   4.02778006
    656,   83.8072968,   4.02778006
    657,   84.6054001,   4.02778006
    658,   85.4036026,   4.02778006
    659,   86.2017975,   4.02778006
    660,          87.,   4.02778006
    661,           0.,   4.83333015
    662,  0.798165977,   4.83333015
    663,   1.59633005,   4.83333015
    664,      2.39449,   4.83333015
    665,   3.19266009,   4.83333015
    666,   3.99081993,   4.83333015
    667,   4.78899002,   4.83333015
    668,    5.5871501,   4.83333015
    669,   6.38532019,   4.83333015
    670,   7.18347979,   4.83333015
    671,   7.98164988,   4.83333015
    672,   8.77980995,   4.83333015
    673,   9.57798004,   4.83333015
    674,   10.3760996,   4.83333015
    675,   11.1743002,   4.83333015
    676,   11.9723997,   4.83333015
    677,   12.7706003,   4.83333015
    678,      13.5688,   4.83333015
    679,   14.3669004,   4.83333015
    680,   15.1651001,   4.83333015
    681,   15.9631996,   4.83333015
    682,   16.7614002,   4.83333015
    683,   17.5596008,   4.83333015
    684,   18.3577003,   4.83333015
    685,    19.155899,   4.83333015
    686,   19.9540997,   4.83333015
    687,   20.7521992,   4.83333015
    688,   21.5503998,   4.83333015
    689,   22.3486004,   4.83333015
    690,   23.1466999,   4.83333015
    691,   23.9449005,   4.83333015
    692,   24.7430992,   4.83333015
    693,   25.5412006,   4.83333015
    694,   26.3393993,   4.83333015
    695,   27.1375999,   4.83333015
    696,   27.9356995,   4.83333015
    697,   28.7339001,   4.83333015
    698,   29.5319996,   4.83333015
    699,   30.3302002,   4.83333015
    700,   31.1284008,   4.83333015
    701,   31.9265003,   4.83333015
    702,   32.7247009,   4.83333015
    703,   33.5228996,   4.83333015
    704,   34.3209991,   4.83333015
    705,   35.1192017,   4.83333015
    706,   35.9174004,   4.83333015
    707,   36.7154999,   4.83333015
    708,   37.5136986,   4.83333015
    709,   38.3119011,   4.83333015
    710,   39.1100006,   4.83333015
    711,   39.9081993,   4.83333015
    712,   40.7064018,   4.83333015
    713,   41.5045013,   4.83333015
    714,      42.3027,   4.83333015
    715,   43.1008987,   4.83333015
    716,   43.8989983,   4.83333015
    717,   44.6972008,   4.83333015
    718,   45.4953003,   4.83333015
    719,    46.293499,   4.83333015
    720,   47.0917015,   4.83333015
    721,    47.889801,   4.83333015
    722,   48.6879997,   4.83333015
    723,   49.4861984,   4.83333015
    724,   50.2843018,   4.83333015
    725,   51.0825005,   4.83333015
    726,   51.8806992,   4.83333015
    727,   52.6787987,   4.83333015
    728,   53.4770012,   4.83333015
    729,   54.2751999,   4.83333015
    730,   55.0732994,   4.83333015
    731,   55.8714981,   4.83333015
    732,   56.6697006,   4.83333015
    733,   57.4678001,   4.83333015
    734,   58.2659988,   4.83333015
    735,   59.0642014,   4.83333015
    736,   59.8623009,   4.83333015
    737,   60.6604996,   4.83333015
    738,   61.4586983,   4.83333015
    739,   62.2568016,   4.83333015
    740,   63.0550003,   4.83333015
    741,   63.8530998,   4.83333015
    742,   64.6512985,   4.83333015
    743,    65.449501,   4.83333015
    744,   66.2475967,   4.83333015
    745,   67.0457993,   4.83333015
    746,   67.8440018,   4.83333015
    747,   68.6420975,   4.83333015
    748,      69.4403,   4.83333015
    749,   70.2385025,   4.83333015
    750,   71.0365982,   4.83333015
    751,   71.8348007,   4.83333015
    752,   72.6330032,   4.83333015
    753,   73.4310989,   4.83333015
    754,   74.2293015,   4.83333015
    755,   75.0274963,   4.83333015
    756,   75.8255997,   4.83333015
    757,   76.6238022,   4.83333015
    758,   77.4219971,   4.83333015
    759,   78.2201004,   4.83333015
    760,   79.0183029,   4.83333015
    761,   79.8163986,   4.83333015
    762,   80.6146011,   4.83333015
    763,   81.4128036,   4.83333015
    764,   82.2108994,   4.83333015
    765,   83.0091019,   4.83333015
    766,   83.8072968,   4.83333015
    767,   84.6054001,   4.83333015
    768,   85.4036026,   4.83333015
    769,   86.2017975,   4.83333015
    770,          87.,   4.83333015
    771,           0.,   5.63888979
    772,  0.798165977,   5.63888979
    773,   1.59633005,   5.63888979
    774,      2.39449,   5.63888979
    775,   3.19266009,   5.63888979
    776,   3.99081993,   5.63888979
    777,   4.78899002,   5.63888979
    778,    5.5871501,   5.63888979
    779,   6.38532019,   5.63888979
    780,   7.18347979,   5.63888979
    781,   7.98164988,   5.63888979
    782,   8.77980995,   5.63888979
    783,   9.57798004,   5.63888979
    784,   10.3760996,   5.63888979
    785,   11.1743002,   5.63888979
    786,   11.9723997,   5.63888979
    787,   12.7706003,   5.63888979
    788,      13.5688,   5.63888979
    789,   14.3669004,   5.63888979
    790,   15.1651001,   5.63888979
    791,   15.9631996,   5.63888979
    792,   16.7614002,   5.63888979
    793,   17.5596008,   5.63888979
    794,   18.3577003,   5.63888979
    795,    19.155899,   5.63888979
    796,   19.9540997,   5.63888979
    797,   20.7521992,   5.63888979
    798,   21.5503998,   5.63888979
    799,   22.3486004,   5.63888979
    800,   23.1466999,   5.63888979
    801,   23.9449005,   5.63888979
    802,   24.7430992,   5.63888979
    803,   25.5412006,   5.63888979
    804,   26.3393993,   5.63888979
    805,   27.1375999,   5.63888979
    806,   27.9356995,   5.63888979
    807,   28.7339001,   5.63888979
    808,   29.5319996,   5.63888979
    809,   30.3302002,   5.63888979
    810,   31.1284008,   5.63888979
    811,   31.9265003,   5.63888979
    812,   32.7247009,   5.63888979
    813,   33.5228996,   5.63888979
    814,   34.3209991,   5.63888979
    815,   35.1192017,   5.63888979
    816,   35.9174004,   5.63888979
    817,   36.7154999,   5.63888979
    818,   37.5136986,   5.63888979
    819,   38.3119011,   5.63888979
    820,   39.1100006,   5.63888979
    821,   39.9081993,   5.63888979
    822,   40.7064018,   5.63888979
    823,   41.5045013,   5.63888979
    824,      42.3027,   5.63888979
    825,   43.1008987,   5.63888979
    826,   43.8989983,   5.63888979
    827,   44.6972008,   5.63888979
    828,   45.4953003,   5.63888979
    829,    46.293499,   5.63888979
    830,   47.0917015,   5.63888979
    831,    47.889801,   5.63888979
    832,   48.6879997,   5.63888979
    833,   49.4861984,   5.63888979
    834,   50.2843018,   5.63888979
    835,   51.0825005,   5.63888979
    836,   51.8806992,   5.63888979
    837,   52.6787987,   5.63888979
    838,   53.4770012,   5.63888979
    839,   54.2751999,   5.63888979
    840,   55.0732994,   5.63888979
    841,   55.8714981,   5.63888979
    842,   56.6697006,   5.63888979
    843,   57.4678001,   5.63888979
    844,   58.2659988,   5.63888979
    845,   59.0642014,   5.63888979
    846,   59.8623009,   5.63888979
    847,   60.6604996,   5.63888979
    848,   61.4586983,   5.63888979
    849,   62.2568016,   5.63888979
    850,   63.0550003,   5.63888979
    851,   63.8530998,   5.63888979
    852,   64.6512985,   5.63888979
    853,    65.449501,   5.63888979
    854,   66.2475967,   5.63888979
    855,   67.0457993,   5.63888979
    856,   67.8440018,   5.63888979
    857,   68.6420975,   5.63888979
    858,      69.4403,   5.63888979
    859,   70.2385025,   5.63888979
    860,   71.0365982,   5.63888979
    861,   71.8348007,   5.63888979
    862,   72.6330032,   5.63888979
    863,   73.4310989,   5.63888979
    864,   74.2293015,   5.63888979
    865,   75.0274963,   5.63888979
    866,   75.8255997,   5.63888979
    867,   76.6238022,   5.63888979
    868,   77.4219971,   5.63888979
    869,   78.2201004,   5.63888979
    870,   79.0183029,   5.63888979
    871,   79.8163986,   5.63888979
    872,   80.6146011,   5.63888979
    873,   81.4128036,   5.63888979
    874,   82.2108994,   5.63888979
    875,   83.0091019,   5.63888979
    876,   83.8072968,   5.63888979
    877,   84.6054001,   5.63888979
    878,   85.4036026,   5.63888979
    879,   86.2017975,   5.63888979
    880,          87.,   5.63888979
    881,           0.,   6.44443989
    882,  0.798165977,   6.44443989
    883,   1.59633005,   6.44443989
    884,      2.39449,   6.44443989
    885,   3.19266009,   6.44443989
    886,   3.99081993,   6.44443989
    887,   4.78899002,   6.44443989
    888,    5.5871501,   6.44443989
    889,   6.38532019,   6.44443989
    890,   7.18347979,   6.44443989
    891,   7.98164988,   6.44443989
    892,   8.77980995,   6.44443989
    893,   9.57798004,   6.44443989
    894,   10.3760996,   6.44443989
    895,   11.1743002,   6.44443989
    896,   11.9723997,   6.44443989
    897,   12.7706003,   6.44443989
    898,      13.5688,   6.44443989
    899,   14.3669004,   6.44443989
    900,   15.1651001,   6.44443989
    901,   15.9631996,   6.44443989
    902,   16.7614002,   6.44443989
    903,   17.5596008,   6.44443989
    904,   18.3577003,   6.44443989
    905,    19.155899,   6.44443989
    906,   19.9540997,   6.44443989
    907,   20.7521992,   6.44443989
    908,   21.5503998,   6.44443989
    909,   22.3486004,   6.44443989
    910,   23.1466999,   6.44443989
    911,   23.9449005,   6.44443989
    912,   24.7430992,   6.44443989
    913,   25.5412006,   6.44443989
    914,   26.3393993,   6.44443989
    915,   27.1375999,   6.44443989
    916,   27.9356995,   6.44443989
    917,   28.7339001,   6.44443989
    918,   29.5319996,   6.44443989
    919,   30.3302002,   6.44443989
    920,   31.1284008,   6.44443989
    921,   31.9265003,   6.44443989
    922,   32.7247009,   6.44443989
    923,   33.5228996,   6.44443989
    924,   34.3209991,   6.44443989
    925,   35.1192017,   6.44443989
    926,   35.9174004,   6.44443989
    927,   36.7154999,   6.44443989
    928,   37.5136986,   6.44443989
    929,   38.3119011,   6.44443989
    930,   39.1100006,   6.44443989
    931,   39.9081993,   6.44443989
    932,   40.7064018,   6.44443989
    933,   41.5045013,   6.44443989
    934,      42.3027,   6.44443989
    935,   43.1008987,   6.44443989
    936,   43.8989983,   6.44443989
    937,   44.6972008,   6.44443989
    938,   45.4953003,   6.44443989
    939,    46.293499,   6.44443989
    940,   47.0917015,   6.44443989
    941,    47.889801,   6.44443989
    942,   48.6879997,   6.44443989
    943,   49.4861984,   6.44443989
    944,   50.2843018,   6.44443989
    945,   51.0825005,   6.44443989
    946,   51.8806992,   6.44443989
    947,   52.6787987,   6.44443989
    948,   53.4770012,   6.44443989
    949,   54.2751999,   6.44443989
    950,   55.0732994,   6.44443989
    951,   55.8714981,   6.44443989
    952,   56.6697006,   6.44443989
    953,   57.4678001,   6.44443989
    954,   58.2659988,   6.44443989
    955,   59.0642014,   6.44443989
    956,   59.8623009,   6.44443989
    957,   60.6604996,   6.44443989
    958,   61.4586983,   6.44443989
    959,   62.2568016,   6.44443989
    960,   63.0550003,   6.44443989
    961,   63.8530998,   6.44443989
    962,   64.6512985,   6.44443989
    963,    65.449501,   6.44443989
    964,   66.2475967,   6.44443989
    965,   67.0457993,   6.44443989
    966,   67.8440018,   6.44443989
    967,   68.6420975,   6.44443989
    968,      69.4403,   6.44443989
    969,   70.2385025,   6.44443989
    970,   71.0365982,   6.44443989
    971,   71.8348007,   6.44443989
    972,   72.6330032,   6.44443989
    973,   73.4310989,   6.44443989
    974,   74.2293015,   6.44443989
    975,   75.0274963,   6.44443989
    976,   75.8255997,   6.44443989
    977,   76.6238022,   6.44443989
    978,   77.4219971,   6.44443989
    979,   78.2201004,   6.44443989
    980,   79.0183029,   6.44443989
    981,   79.8163986,   6.44443989
    982,   80.6146011,   6.44443989
    983,   81.4128036,   6.44443989
    984,   82.2108994,   6.44443989
    985,   83.0091019,   6.44443989
    986,   83.8072968,   6.44443989
    987,   84.6054001,   6.44443989
    988,   85.4036026,   6.44443989
    989,   86.2017975,   6.44443989
    990,          87.,   6.44443989
    991,           0.,         7.25
    992,  0.798165977,         7.25
    993,   1.59633005,         7.25
    994,      2.39449,         7.25
    995,   3.19266009,         7.25
    996,   3.99081993,         7.25
    997,   4.78899002,         7.25
    998,    5.5871501,         7.25
    999,   6.38532019,         7.25
   1000,   7.18347979,         7.25
   1001,   7.98164988,         7.25
   1002,   8.77980995,         7.25
   1003,   9.57798004,         7.25
   1004,   10.3760996,         7.25
   1005,   11.1743002,         7.25
   1006,   11.9723997,         7.25
   1007,   12.7706003,         7.25
   1008,      13.5688,         7.25
   1009,   14.3669004,         7.25
   1010,   15.1651001,         7.25
   1011,   15.9631996,         7.25
   1012,   16.7614002,         7.25
   1013,   17.5596008,         7.25
   1014,   18.3577003,         7.25
   1015,    19.155899,         7.25
   1016,   19.9540997,         7.25
   1017,   20.7521992,         7.25
   1018,   21.5503998,         7.25
   1019,   22.3486004,         7.25
   1020,   23.1466999,         7.25
   1021,   23.9449005,         7.25
   1022,   24.7430992,         7.25
   1023,   25.5412006,         7.25
   1024,   26.3393993,         7.25
   1025,   27.1375999,         7.25
   1026,   27.9356995,         7.25
   1027,   28.7339001,         7.25
   1028,   29.5319996,         7.25
   1029,   30.3302002,         7.25
   1030,   31.1284008,         7.25
   1031,   31.9265003,         7.25
   1032,   32.7247009,         7.25
   1033,   33.5228996,         7.25
   1034,   34.3209991,         7.25
   1035,   35.1192017,         7.25
   1036,   35.9174004,         7.25
   1037,   36.7154999,         7.25
   1038,   37.5136986,         7.25
   1039,   38.3119011,         7.25
   1040,   39.1100006,         7.25
   1041,   39.9081993,         7.25
   1042,   40.7064018,         7.25
   1043,   41.5045013,         7.25
   1044,      42.3027,         7.25
   1045,   43.1008987,         7.25
   1046,   43.8989983,         7.25
   1047,   44.6972008,         7.25
   1048,   45.4953003,         7.25
   1049,    46.293499,         7.25
   1050,   47.0917015,         7.25
   1051,    47.889801,         7.25
   1052,   48.6879997,         7.25
   1053,   49.4861984,         7.25
   1054,   50.2843018,         7.25
   1055,   51.0825005,         7.25
   1056,   51.8806992,         7.25
   1057,   52.6787987,         7.25
   1058,   53.4770012,         7.25
   1059,   54.2751999,         7.25
   1060,   55.0732994,         7.25
   1061,   55.8714981,         7.25
   1062,   56.6697006,         7.25
   1063,   57.4678001,         7.25
   1064,   58.2659988,         7.25
   1065,   59.0642014,         7.25
   1066,   59.8623009,         7.25
   1067,   60.6604996,         7.25
   1068,   61.4586983,         7.25
   1069,   62.2568016,         7.25
   1070,   63.0550003,         7.25
   1071,   63.8530998,         7.25
   1072,   64.6512985,         7.25
   1073,    65.449501,         7.25
   1074,   66.2475967,         7.25
   1075,   67.0457993,         7.25
   1076,   67.8440018,         7.25
   1077,   68.6420975,         7.25
   1078,      69.4403,         7.25
   1079,   70.2385025,         7.25
   1080,   71.0365982,         7.25
   1081,   71.8348007,         7.25
   1082,   72.6330032,         7.25
   1083,   73.4310989,         7.25
   1084,   74.2293015,         7.25
   1085,   75.0274963,         7.25
   1086,   75.8255997,         7.25
   1087,   76.6238022,         7.25
   1088,   77.4219971,         7.25
   1089,   78.2201004,         7.25
   1090,   79.0183029,         7.25
   1091,   79.8163986,         7.25
   1092,   80.6146011,         7.25
   1093,   81.4128036,         7.25
   1094,   82.2108994,         7.25
   1095,   83.0091019,         7.25
   1096,   83.8072968,         7.25
   1097,   84.6054001,         7.25
   1098,   85.4036026,         7.25
   1099,   86.2017975,         7.25
   1100,          87.,         7.25
   1101,           0.,   8.05556011
   1102,  0.798165977,   8.05556011
   1103,   1.59633005,   8.05556011
   1104,      2.39449,   8.05556011
   1105,   3.19266009,   8.05556011
   1106,   3.99081993,   8.05556011
   1107,   4.78899002,   8.05556011
   1108,    5.5871501,   8.05556011
   1109,   6.38532019,   8.05556011
   1110,   7.18347979,   8.05556011
   1111,   7.98164988,   8.05556011
   1112,   8.77980995,   8.05556011
   1113,   9.57798004,   8.05556011
   1114,   10.3760996,   8.05556011
   1115,   11.1743002,   8.05556011
   1116,   11.9723997,   8.05556011
   1117,   12.7706003,   8.05556011
   1118,      13.5688,   8.05556011
   1119,   14.3669004,   8.05556011
   1120,   15.1651001,   8.05556011
   1121,   15.9631996,   8.05556011
   1122,   16.7614002,   8.05556011
   1123,   17.5596008,   8.05556011
   1124,   18.3577003,   8.05556011
   1125,    19.155899,   8.05556011
   1126,   19.9540997,   8.05556011
   1127,   20.7521992,   8.05556011
   1128,   21.5503998,   8.05556011
   1129,   22.3486004,   8.05556011
   1130,   23.1466999,   8.05556011
   1131,   23.9449005,   8.05556011
   1132,   24.7430992,   8.05556011
   1133,   25.5412006,   8.05556011
   1134,   26.3393993,   8.05556011
   1135,   27.1375999,   8.05556011
   1136,   27.9356995,   8.05556011
   1137,   28.7339001,   8.05556011
   1138,   29.5319996,   8.05556011
   1139,   30.3302002,   8.05556011
   1140,   31.1284008,   8.05556011
   1141,   31.9265003,   8.05556011
   1142,   32.7247009,   8.05556011
   1143,   33.5228996,   8.05556011
   1144,   34.3209991,   8.05556011
   1145,   35.1192017,   8.05556011
   1146,   35.9174004,   8.05556011
   1147,   36.7154999,   8.05556011
   1148,   37.5136986,   8.05556011
   1149,   38.3119011,   8.05556011
   1150,   39.1100006,   8.05556011
   1151,   39.9081993,   8.05556011
   1152,   40.7064018,   8.05556011
   1153,   41.5045013,   8.05556011
   1154,      42.3027,   8.05556011
   1155,   43.1008987,   8.05556011
   1156,   43.8989983,   8.05556011
   1157,   44.6972008,   8.05556011
   1158,   45.4953003,   8.05556011
   1159,    46.293499,   8.05556011
   1160,   47.0917015,   8.05556011
   1161,    47.889801,   8.05556011
   1162,   48.6879997,   8.05556011
   1163,   49.4861984,   8.05556011
   1164,   50.2843018,   8.05556011
   1165,   51.0825005,   8.05556011
   1166,   51.8806992,   8.05556011
   1167,   52.6787987,   8.05556011
   1168,   53.4770012,   8.05556011
   1169,   54.2751999,   8.05556011
   1170,   55.0732994,   8.05556011
   1171,   55.8714981,   8.05556011
   1172,   56.6697006,   8.05556011
   1173,   57.4678001,   8.05556011
   1174,   58.2659988,   8.05556011
   1175,   59.0642014,   8.05556011
   1176,   59.8623009,   8.05556011
   1177,   60.6604996,   8.05556011
   1178,   61.4586983,   8.05556011
   1179,   62.2568016,   8.05556011
   1180,   63.0550003,   8.05556011
   1181,   63.8530998,   8.05556011
   1182,   64.6512985,   8.05556011
   1183,    65.449501,   8.05556011
   1184,   66.2475967,   8.05556011
   1185,   67.0457993,   8.05556011
   1186,   67.8440018,   8.05556011
   1187,   68.6420975,   8.05556011
   1188,      69.4403,   8.05556011
   1189,   70.2385025,   8.05556011
   1190,   71.0365982,   8.05556011
   1191,   71.8348007,   8.05556011
   1192,   72.6330032,   8.05556011
   1193,   73.4310989,   8.05556011
   1194,   74.2293015,   8.05556011
   1195,   75.0274963,   8.05556011
   1196,   75.8255997,   8.05556011
   1197,   76.6238022,   8.05556011
   1198,   77.4219971,   8.05556011
   1199,   78.2201004,   8.05556011
   1200,   79.0183029,   8.05556011
   1201,   79.8163986,   8.05556011
   1202,   80.6146011,   8.05556011
   1203,   81.4128036,   8.05556011
   1204,   82.2108994,   8.05556011
   1205,   83.0091019,   8.05556011
   1206,   83.8072968,   8.05556011
   1207,   84.6054001,   8.05556011
   1208,   85.4036026,   8.05556011
   1209,   86.2017975,   8.05556011
   1210,          87.,   8.05556011
   1211,           0.,   8.86110973
   1212,  0.798165977,   8.86110973
   1213,   1.59633005,   8.86110973
   1214,      2.39449,   8.86110973
   1215,   3.19266009,   8.86110973
   1216,   3.99081993,   8.86110973
   1217,   4.78899002,   8.86110973
   1218,    5.5871501,   8.86110973
   1219,   6.38532019,   8.86110973
   1220,   7.18347979,   8.86110973
   1221,   7.98164988,   8.86110973
   1222,   8.77980995,   8.86110973
   1223,   9.57798004,   8.86110973
   1224,   10.3760996,   8.86110973
   1225,   11.1743002,   8.86110973
   1226,   11.9723997,   8.86110973
   1227,   12.7706003,   8.86110973
   1228,      13.5688,   8.86110973
   1229,   14.3669004,   8.86110973
   1230,   15.1651001,   8.86110973
   1231,   15.9631996,   8.86110973
   1232,   16.7614002,   8.86110973
   1233,   17.5596008,   8.86110973
   1234,   18.3577003,   8.86110973
   1235,    19.155899,   8.86110973
   1236,   19.9540997,   8.86110973
   1237,   20.7521992,   8.86110973
   1238,   21.5503998,   8.86110973
   1239,   22.3486004,   8.86110973
   1240,   23.1466999,   8.86110973
   1241,   23.9449005,   8.86110973
   1242,   24.7430992,   8.86110973
   1243,   25.5412006,   8.86110973
   1244,   26.3393993,   8.86110973
   1245,   27.1375999,   8.86110973
   1246,   27.9356995,   8.86110973
   1247,   28.7339001,   8.86110973
   1248,   29.5319996,   8.86110973
   1249,   30.3302002,   8.86110973
   1250,   31.1284008,   8.86110973
   1251,   31.9265003,   8.86110973
   1252,   32.7247009,   8.86110973
   1253,   33.5228996,   8.86110973
   1254,   34.3209991,   8.86110973
   1255,   35.1192017,   8.86110973
   1256,   35.9174004,   8.86110973
   1257,   36.7154999,   8.86110973
   1258,   37.5136986,   8.86110973
   1259,   38.3119011,   8.86110973
   1260,   39.1100006,   8.86110973
   1261,   39.9081993,   8.86110973
   1262,   40.7064018,   8.86110973
   1263,   41.5045013,   8.86110973
   1264,      42.3027,   8.86110973
   1265,   43.1008987,   8.86110973
   1266,   43.8989983,   8.86110973
   1267,   44.6972008,   8.86110973
   1268,   45.4953003,   8.86110973
   1269,    46.293499,   8.86110973
   1270,   47.0917015,   8.86110973
   1271,    47.889801,   8.86110973
   1272,   48.6879997,   8.86110973
   1273,   49.4861984,   8.86110973
   1274,   50.2843018,   8.86110973
   1275,   51.0825005,   8.86110973
   1276,   51.8806992,   8.86110973
   1277,   52.6787987,   8.86110973
   1278,   53.4770012,   8.86110973
   1279,   54.2751999,   8.86110973
   1280,   55.0732994,   8.86110973
   1281,   55.8714981,   8.86110973
   1282,   56.6697006,   8.86110973
   1283,   57.4678001,   8.86110973
   1284,   58.2659988,   8.86110973
   1285,   59.0642014,   8.86110973
   1286,   59.8623009,   8.86110973
   1287,   60.6604996,   8.86110973
   1288,   61.4586983,   8.86110973
   1289,   62.2568016,   8.86110973
   1290,   63.0550003,   8.86110973
   1291,   63.8530998,   8.86110973
   1292,   64.6512985,   8.86110973
   1293,    65.449501,   8.86110973
   1294,   66.2475967,   8.86110973
   1295,   67.0457993,   8.86110973
   1296,   67.8440018,   8.86110973
   1297,   68.6420975,   8.86110973
   1298,      69.4403,   8.86110973
   1299,   70.2385025,   8.86110973
   1300,   71.0365982,   8.86110973
   1301,   71.8348007,   8.86110973
   1302,   72.6330032,   8.86110973
   1303,   73.4310989,   8.86110973
   1304,   74.2293015,   8.86110973
   1305,   75.0274963,   8.86110973
   1306,   75.8255997,   8.86110973
   1307,   76.6238022,   8.86110973
   1308,   77.4219971,   8.86110973
   1309,   78.2201004,   8.86110973
   1310,   79.0183029,   8.86110973
   1311,   79.8163986,   8.86110973
   1312,   80.6146011,   8.86110973
   1313,   81.4128036,   8.86110973
   1314,   82.2108994,   8.86110973
   1315,   83.0091019,   8.86110973
   1316,   83.8072968,   8.86110973
   1317,   84.6054001,   8.86110973
   1318,   85.4036026,   8.86110973
   1319,   86.2017975,   8.86110973
   1320,          87.,   8.86110973
   1321,           0.,   9.66666985
   1322,  0.798165977,   9.66666985
   1323,   1.59633005,   9.66666985
   1324,      2.39449,   9.66666985
   1325,   3.19266009,   9.66666985
   1326,   3.99081993,   9.66666985
   1327,   4.78899002,   9.66666985
   1328,    5.5871501,   9.66666985
   1329,   6.38532019,   9.66666985
   1330,   7.18347979,   9.66666985
   1331,   7.98164988,   9.66666985
   1332,   8.77980995,   9.66666985
   1333,   9.57798004,   9.66666985
   1334,   10.3760996,   9.66666985
   1335,   11.1743002,   9.66666985
   1336,   11.9723997,   9.66666985
   1337,   12.7706003,   9.66666985
   1338,      13.5688,   9.66666985
   1339,   14.3669004,   9.66666985
   1340,   15.1651001,   9.66666985
   1341,   15.9631996,   9.66666985
   1342,   16.7614002,   9.66666985
   1343,   17.5596008,   9.66666985
   1344,   18.3577003,   9.66666985
   1345,    19.155899,   9.66666985
   1346,   19.9540997,   9.66666985
   1347,   20.7521992,   9.66666985
   1348,   21.5503998,   9.66666985
   1349,   22.3486004,   9.66666985
   1350,   23.1466999,   9.66666985
   1351,   23.9449005,   9.66666985
   1352,   24.7430992,   9.66666985
   1353,   25.5412006,   9.66666985
   1354,   26.3393993,   9.66666985
   1355,   27.1375999,   9.66666985
   1356,   27.9356995,   9.66666985
   1357,   28.7339001,   9.66666985
   1358,   29.5319996,   9.66666985
   1359,   30.3302002,   9.66666985
   1360,   31.1284008,   9.66666985
   1361,   31.9265003,   9.66666985
   1362,   32.7247009,   9.66666985
   1363,   33.5228996,   9.66666985
   1364,   34.3209991,   9.66666985
   1365,   35.1192017,   9.66666985
   1366,   35.9174004,   9.66666985
   1367,   36.7154999,   9.66666985
   1368,   37.5136986,   9.66666985
   1369,   38.3119011,   9.66666985
   1370,   39.1100006,   9.66666985
   1371,   39.9081993,   9.66666985
   1372,   40.7064018,   9.66666985
   1373,   41.5045013,   9.66666985
   1374,      42.3027,   9.66666985
   1375,   43.1008987,   9.66666985
   1376,   43.8989983,   9.66666985
   1377,   44.6972008,   9.66666985
   1378,   45.4953003,   9.66666985
   1379,    46.293499,   9.66666985
   1380,   47.0917015,   9.66666985
   1381,    47.889801,   9.66666985
   1382,   48.6879997,   9.66666985
   1383,   49.4861984,   9.66666985
   1384,   50.2843018,   9.66666985
   1385,   51.0825005,   9.66666985
   1386,   51.8806992,   9.66666985
   1387,   52.6787987,   9.66666985
   1388,   53.4770012,   9.66666985
   1389,   54.2751999,   9.66666985
   1390,   55.0732994,   9.66666985
   1391,   55.8714981,   9.66666985
   1392,   56.6697006,   9.66666985
   1393,   57.4678001,   9.66666985
   1394,   58.2659988,   9.66666985
   1395,   59.0642014,   9.66666985
   1396,   59.8623009,   9.66666985
   1397,   60.6604996,   9.66666985
   1398,   61.4586983,   9.66666985
   1399,   62.2568016,   9.66666985
   1400,   63.0550003,   9.66666985
   1401,   63.8530998,   9.66666985
   1402,   64.6512985,   9.66666985
   1403,    65.449501,   9.66666985
   1404,   66.2475967,   9.66666985
   1405,   67.0457993,   9.66666985
   1406,   67.8440018,   9.66666985
   1407,   68.6420975,   9.66666985
   1408,      69.4403,   9.66666985
   1409,   70.2385025,   9.66666985
   1410,   71.0365982,   9.66666985
   1411,   71.8348007,   9.66666985
   1412,   72.6330032,   9.66666985
   1413,   73.4310989,   9.66666985
   1414,   74.2293015,   9.66666985
   1415,   75.0274963,   9.66666985
   1416,   75.8255997,   9.66666985
   1417,   76.6238022,   9.66666985
   1418,   77.4219971,   9.66666985
   1419,   78.2201004,   9.66666985
   1420,   79.0183029,   9.66666985
   1421,   79.8163986,   9.66666985
   1422,   80.6146011,   9.66666985
   1423,   81.4128036,   9.66666985
   1424,   82.2108994,   9.66666985
   1425,   83.0091019,   9.66666985
   1426,   83.8072968,   9.66666985
   1427,   84.6054001,   9.66666985
   1428,   85.4036026,   9.66666985
   1429,   86.2017975,   9.66666985
   1430,          87.,   9.66666985
   1431,           0.,   10.4722004
   1432,  0.798165977,   10.4722004
   1433,   1.59633005,   10.4722004
   1434,      2.39449,   10.4722004
   1435,   3.19266009,   10.4722004
   1436,   3.99081993,   10.4722004
   1437,   4.78899002,   10.4722004
   1438,    5.5871501,   10.4722004
   1439,   6.38532019,   10.4722004
   1440,   7.18347979,   10.4722004
   1441,   7.98164988,   10.4722004
   1442,   8.77980995,   10.4722004
   1443,   9.57798004,   10.4722004
   1444,   10.3760996,   10.4722004
   1445,   11.1743002,   10.4722004
   1446,   11.9723997,   10.4722004
   1447,   12.7706003,   10.4722004
   1448,      13.5688,   10.4722004
   1449,   14.3669004,   10.4722004
   1450,   15.1651001,   10.4722004
   1451,   15.9631996,   10.4722004
   1452,   16.7614002,   10.4722004
   1453,   17.5596008,   10.4722004
   1454,   18.3577003,   10.4722004
   1455,    19.155899,   10.4722004
   1456,   19.9540997,   10.4722004
   1457,   20.7521992,   10.4722004
   1458,   21.5503998,   10.4722004
   1459,   22.3486004,   10.4722004
   1460,   23.1466999,   10.4722004
   1461,   23.9449005,   10.4722004
   1462,   24.7430992,   10.4722004
   1463,   25.5412006,   10.4722004
   1464,   26.3393993,   10.4722004
   1465,   27.1375999,   10.4722004
   1466,   27.9356995,   10.4722004
   1467,   28.7339001,   10.4722004
   1468,   29.5319996,   10.4722004
   1469,   30.3302002,   10.4722004
   1470,   31.1284008,   10.4722004
   1471,   31.9265003,   10.4722004
   1472,   32.7247009,   10.4722004
   1473,   33.5228996,   10.4722004
   1474,   34.3209991,   10.4722004
   1475,   35.1192017,   10.4722004
   1476,   35.9174004,   10.4722004
   1477,   36.7154999,   10.4722004
   1478,   37.5136986,   10.4722004
   1479,   38.3119011,   10.4722004
   1480,   39.1100006,   10.4722004
   1481,   39.9081993,   10.4722004
   1482,   40.7064018,   10.4722004
   1483,   41.5045013,   10.4722004
   1484,      42.3027,   10.4722004
   1485,   43.1008987,   10.4722004
   1486,   43.8989983,   10.4722004
   1487,   44.6972008,   10.4722004
   1488,   45.4953003,   10.4722004
   1489,    46.293499,   10.4722004
   1490,   47.0917015,   10.4722004
   1491,    47.889801,   10.4722004
   1492,   48.6879997,   10.4722004
   1493,   49.4861984,   10.4722004
   1494,   50.2843018,   10.4722004
   1495,   51.0825005,   10.4722004
   1496,   51.8806992,   10.4722004
   1497,   52.6787987,   10.4722004
   1498,   53.4770012,   10.4722004
   1499,   54.2751999,   10.4722004
   1500,   55.0732994,   10.4722004
   1501,   55.8714981,   10.4722004
   1502,   56.6697006,   10.4722004
   1503,   57.4678001,   10.4722004
   1504,   58.2659988,   10.4722004
   1505,   59.0642014,   10.4722004
   1506,   59.8623009,   10.4722004
   1507,   60.6604996,   10.4722004
   1508,   61.4586983,   10.4722004
   1509,   62.2568016,   10.4722004
   1510,   63.0550003,   10.4722004
   1511,   63.8530998,   10.4722004
   1512,   64.6512985,   10.4722004
   1513,    65.449501,   10.4722004
   1514,   66.2475967,   10.4722004
   1515,   67.0457993,   10.4722004
   1516,   67.8440018,   10.4722004
   1517,   68.6420975,   10.4722004
   1518,      69.4403,   10.4722004
   1519,   70.2385025,   10.4722004
   1520,   71.0365982,   10.4722004
   1521,   71.8348007,   10.4722004
   1522,   72.6330032,   10.4722004
   1523,   73.4310989,   10.4722004
   1524,   74.2293015,   10.4722004
   1525,   75.0274963,   10.4722004
   1526,   75.8255997,   10.4722004
   1527,   76.6238022,   10.4722004
   1528,   77.4219971,   10.4722004
   1529,   78.2201004,   10.4722004
   1530,   79.0183029,   10.4722004
   1531,   79.8163986,   10.4722004
   1532,   80.6146011,   10.4722004
   1533,   81.4128036,   10.4722004
   1534,   82.2108994,   10.4722004
   1535,   83.0091019,   10.4722004
   1536,   83.8072968,   10.4722004
   1537,   84.6054001,   10.4722004
   1538,   85.4036026,   10.4722004
   1539,   86.2017975,   10.4722004
   1540,          87.,   10.4722004
   1541,           0.,   11.2777004
   1542,  0.798165977,   11.2777004
   1543,   1.59633005,   11.2777004
   1544,      2.39449,   11.2777004
   1545,   3.19266009,   11.2777004
   1546,   3.99081993,   11.2777004
   1547,   4.78899002,   11.2777004
   1548,    5.5871501,   11.2777004
   1549,   6.38532019,   11.2777004
   1550,   7.18347979,   11.2777004
   1551,   7.98164988,   11.2777004
   1552,   8.77980995,   11.2777004
   1553,   9.57798004,   11.2777004
   1554,   10.3760996,   11.2777004
   1555,   11.1743002,   11.2777004
   1556,   11.9723997,   11.2777004
   1557,   12.7706003,   11.2777004
   1558,      13.5688,   11.2777004
   1559,   14.3669004,   11.2777004
   1560,   15.1651001,   11.2777004
   1561,   15.9631996,   11.2777004
   1562,   16.7614002,   11.2777004
   1563,   17.5596008,   11.2777004
   1564,   18.3577003,   11.2777004
   1565,    19.155899,   11.2777004
   1566,   19.9540997,   11.2777004
   1567,   20.7521992,   11.2777004
   1568,   21.5503998,   11.2777004
   1569,   22.3486004,   11.2777004
   1570,   23.1466999,   11.2777004
   1571,   23.9449005,   11.2777004
   1572,   24.7430992,   11.2777004
   1573,   25.5412006,   11.2777004
   1574,   26.3393993,   11.2777004
   1575,   27.1375999,   11.2777004
   1576,   27.9356995,   11.2777004
   1577,   28.7339001,   11.2777004
   1578,   29.5319996,   11.2777004
   1579,   30.3302002,   11.2777004
   1580,   31.1284008,   11.2777004
   1581,   31.9265003,   11.2777004
   1582,   32.7247009,   11.2777004
   1583,   33.5228996,   11.2777004
   1584,   34.3209991,   11.2777004
   1585,   35.1192017,   11.2777004
   1586,   35.9174004,   11.2777004
   1587,   36.7154999,   11.2777004
   1588,   37.5136986,   11.2777004
   1589,   38.3119011,   11.2777004
   1590,   39.1100006,   11.2777004
   1591,   39.9081993,   11.2777004
   1592,   40.7064018,   11.2777004
   1593,   41.5045013,   11.2777004
   1594,      42.3027,   11.2777004
   1595,   43.1008987,   11.2777004
   1596,   43.8989983,   11.2777004
   1597,   44.6972008,   11.2777004
   1598,   45.4953003,   11.2777004
   1599,    46.293499,   11.2777004
   1600,   47.0917015,   11.2777004
   1601,    47.889801,   11.2777004
   1602,   48.6879997,   11.2777004
   1603,   49.4861984,   11.2777004
   1604,   50.2843018,   11.2777004
   1605,   51.0825005,   11.2777004
   1606,   51.8806992,   11.2777004
   1607,   52.6787987,   11.2777004
   1608,   53.4770012,   11.2777004
   1609,   54.2751999,   11.2777004
   1610,   55.0732994,   11.2777004
   1611,   55.8714981,   11.2777004
   1612,   56.6697006,   11.2777004
   1613,   57.4678001,   11.2777004
   1614,   58.2659988,   11.2777004
   1615,   59.0642014,   11.2777004
   1616,   59.8623009,   11.2777004
   1617,   60.6604996,   11.2777004
   1618,   61.4586983,   11.2777004
   1619,   62.2568016,   11.2777004
   1620,   63.0550003,   11.2777004
   1621,   63.8530998,   11.2777004
   1622,   64.6512985,   11.2777004
   1623,    65.449501,   11.2777004
   1624,   66.2475967,   11.2777004
   1625,   67.0457993,   11.2777004
   1626,   67.8440018,   11.2777004
   1627,   68.6420975,   11.2777004
   1628,      69.4403,   11.2777004
   1629,   70.2385025,   11.2777004
   1630,   71.0365982,   11.2777004
   1631,   71.8348007,   11.2777004
   1632,   72.6330032,   11.2777004
   1633,   73.4310989,   11.2777004
   1634,   74.2293015,   11.2777004
   1635,   75.0274963,   11.2777004
   1636,   75.8255997,   11.2777004
   1637,   76.6238022,   11.2777004
   1638,   77.4219971,   11.2777004
   1639,   78.2201004,   11.2777004
   1640,   79.0183029,   11.2777004
   1641,   79.8163986,   11.2777004
   1642,   80.6146011,   11.2777004
   1643,   81.4128036,   11.2777004
   1644,   82.2108994,   11.2777004
   1645,   83.0091019,   11.2777004
   1646,   83.8072968,   11.2777004
   1647,   84.6054001,   11.2777004
   1648,   85.4036026,   11.2777004
   1649,   86.2017975,   11.2777004
   1650,          87.,   11.2777004
   1651,           0.,   12.0832996
   1652,  0.798165977,   12.0832996
   1653,   1.59633005,   12.0832996
   1654,      2.39449,   12.0832996
   1655,   3.19266009,   12.0832996
   1656,   3.99081993,   12.0832996
   1657,   4.78899002,   12.0832996
   1658,    5.5871501,   12.0832996
   1659,   6.38532019,   12.0832996
   1660,   7.18347979,   12.0832996
   1661,   7.98164988,   12.0832996
   1662,   8.77980995,   12.0832996
   1663,   9.57798004,   12.0832996
   1664,   10.3760996,   12.0832996
   1665,   11.1743002,   12.0832996
   1666,   11.9723997,   12.0832996
   1667,   12.7706003,   12.0832996
   1668,      13.5688,   12.0832996
   1669,   14.3669004,   12.0832996
   1670,   15.1651001,   12.0832996
   1671,   15.9631996,   12.0832996
   1672,   16.7614002,   12.0832996
   1673,   17.5596008,   12.0832996
   1674,   18.3577003,   12.0832996
   1675,    19.155899,   12.0832996
   1676,   19.9540997,   12.0832996
   1677,   20.7521992,   12.0832996
   1678,   21.5503998,   12.0832996
   1679,   22.3486004,   12.0832996
   1680,   23.1466999,   12.0832996
   1681,   23.9449005,   12.0832996
   1682,   24.7430992,   12.0832996
   1683,   25.5412006,   12.0832996
   1684,   26.3393993,   12.0832996
   1685,   27.1375999,   12.0832996
   1686,   27.9356995,   12.0832996
   1687,   28.7339001,   12.0832996
   1688,   29.5319996,   12.0832996
   1689,   30.3302002,   12.0832996
   1690,   31.1284008,   12.0832996
   1691,   31.9265003,   12.0832996
   1692,   32.7247009,   12.0832996
   1693,   33.5228996,   12.0832996
   1694,   34.3209991,   12.0832996
   1695,   35.1192017,   12.0832996
   1696,   35.9174004,   12.0832996
   1697,   36.7154999,   12.0832996
   1698,   37.5136986,   12.0832996
   1699,   38.3119011,   12.0832996
   1700,   39.1100006,   12.0832996
   1701,   39.9081993,   12.0832996
   1702,   40.7064018,   12.0832996
   1703,   41.5045013,   12.0832996
   1704,      42.3027,   12.0832996
   1705,   43.1008987,   12.0832996
   1706,   43.8989983,   12.0832996
   1707,   44.6972008,   12.0832996
   1708,   45.4953003,   12.0832996
   1709,    46.293499,   12.0832996
   1710,   47.0917015,   12.0832996
   1711,    47.889801,   12.0832996
   1712,   48.6879997,   12.0832996
   1713,   49.4861984,   12.0832996
   1714,   50.2843018,   12.0832996
   1715,   51.0825005,   12.0832996
   1716,   51.8806992,   12.0832996
   1717,   52.6787987,   12.0832996
   1718,   53.4770012,   12.0832996
   1719,   54.2751999,   12.0832996
   1720,   55.0732994,   12.0832996
   1721,   55.8714981,   12.0832996
   1722,   56.6697006,   12.0832996
   1723,   57.4678001,   12.0832996
   1724,   58.2659988,   12.0832996
   1725,   59.0642014,   12.0832996
   1726,   59.8623009,   12.0832996
   1727,   60.6604996,   12.0832996
   1728,   61.4586983,   12.0832996
   1729,   62.2568016,   12.0832996
   1730,   63.0550003,   12.0832996
   1731,   63.8530998,   12.0832996
   1732,   64.6512985,   12.0832996
   1733,    65.449501,   12.0832996
   1734,   66.2475967,   12.0832996
   1735,   67.0457993,   12.0832996
   1736,   67.8440018,   12.0832996
   1737,   68.6420975,   12.0832996
   1738,      69.4403,   12.0832996
   1739,   70.2385025,   12.0832996
   1740,   71.0365982,   12.0832996
   1741,   71.8348007,   12.0832996
   1742,   72.6330032,   12.0832996
   1743,   73.4310989,   12.0832996
   1744,   74.2293015,   12.0832996
   1745,   75.0274963,   12.0832996
   1746,   75.8255997,   12.0832996
   1747,   76.6238022,   12.0832996
   1748,   77.4219971,   12.0832996
   1749,   78.2201004,   12.0832996
   1750,   79.0183029,   12.0832996
   1751,   79.8163986,   12.0832996
   1752,   80.6146011,   12.0832996
   1753,   81.4128036,   12.0832996
   1754,   82.2108994,   12.0832996
   1755,   83.0091019,   12.0832996
   1756,   83.8072968,   12.0832996
   1757,   84.6054001,   12.0832996
   1758,   85.4036026,   12.0832996
   1759,   86.2017975,   12.0832996
   1760,          87.,   12.0832996
   1761,           0.,   12.8887997
   1762,  0.798165977,   12.8887997
   1763,   1.59633005,   12.8887997
   1764,      2.39449,   12.8887997
   1765,   3.19266009,   12.8887997
   1766,   3.99081993,   12.8887997
   1767,   4.78899002,   12.8887997
   1768,    5.5871501,   12.8887997
   1769,   6.38532019,   12.8887997
   1770,   7.18347979,   12.8887997
   1771,   7.98164988,   12.8887997
   1772,   8.77980995,   12.8887997
   1773,   9.57798004,   12.8887997
   1774,   10.3760996,   12.8887997
   1775,   11.1743002,   12.8887997
   1776,   11.9723997,   12.8887997
   1777,   12.7706003,   12.8887997
   1778,      13.5688,   12.8887997
   1779,   14.3669004,   12.8887997
   1780,   15.1651001,   12.8887997
   1781,   15.9631996,   12.8887997
   1782,   16.7614002,   12.8887997
   1783,   17.5596008,   12.8887997
   1784,   18.3577003,   12.8887997
   1785,    19.155899,   12.8887997
   1786,   19.9540997,   12.8887997
   1787,   20.7521992,   12.8887997
   1788,   21.5503998,   12.8887997
   1789,   22.3486004,   12.8887997
   1790,   23.1466999,   12.8887997
   1791,   23.9449005,   12.8887997
   1792,   24.7430992,   12.8887997
   1793,   25.5412006,   12.8887997
   1794,   26.3393993,   12.8887997
   1795,   27.1375999,   12.8887997
   1796,   27.9356995,   12.8887997
   1797,   28.7339001,   12.8887997
   1798,   29.5319996,   12.8887997
   1799,   30.3302002,   12.8887997
   1800,   31.1284008,   12.8887997
   1801,   31.9265003,   12.8887997
   1802,   32.7247009,   12.8887997
   1803,   33.5228996,   12.8887997
   1804,   34.3209991,   12.8887997
   1805,   35.1192017,   12.8887997
   1806,   35.9174004,   12.8887997
   1807,   36.7154999,   12.8887997
   1808,   37.5136986,   12.8887997
   1809,   38.3119011,   12.8887997
   1810,   39.1100006,   12.8887997
   1811,   39.9081993,   12.8887997
   1812,   40.7064018,   12.8887997
   1813,   41.5045013,   12.8887997
   1814,      42.3027,   12.8887997
   1815,   43.1008987,   12.8887997
   1816,   43.8989983,   12.8887997
   1817,   44.6972008,   12.8887997
   1818,   45.4953003,   12.8887997
   1819,    46.293499,   12.8887997
   1820,   47.0917015,   12.8887997
   1821,    47.889801,   12.8887997
   1822,   48.6879997,   12.8887997
   1823,   49.4861984,   12.8887997
   1824,   50.2843018,   12.8887997
   1825,   51.0825005,   12.8887997
   1826,   51.8806992,   12.8887997
   1827,   52.6787987,   12.8887997
   1828,   53.4770012,   12.8887997
   1829,   54.2751999,   12.8887997
   1830,   55.0732994,   12.8887997
   1831,   55.8714981,   12.8887997
   1832,   56.6697006,   12.8887997
   1833,   57.4678001,   12.8887997
   1834,   58.2659988,   12.8887997
   1835,   59.0642014,   12.8887997
   1836,   59.8623009,   12.8887997
   1837,   60.6604996,   12.8887997
   1838,   61.4586983,   12.8887997
   1839,   62.2568016,   12.8887997
   1840,   63.0550003,   12.8887997
   1841,   63.8530998,   12.8887997
   1842,   64.6512985,   12.8887997
   1843,    65.449501,   12.8887997
   1844,   66.2475967,   12.8887997
   1845,   67.0457993,   12.8887997
   1846,   67.8440018,   12.8887997
   1847,   68.6420975,   12.8887997
   1848,      69.4403,   12.8887997
   1849,   70.2385025,   12.8887997
   1850,   71.0365982,   12.8887997
   1851,   71.8348007,   12.8887997
   1852,   72.6330032,   12.8887997
   1853,   73.4310989,   12.8887997
   1854,   74.2293015,   12.8887997
   1855,   75.0274963,   12.8887997
   1856,   75.8255997,   12.8887997
   1857,   76.6238022,   12.8887997
   1858,   77.4219971,   12.8887997
   1859,   78.2201004,   12.8887997
   1860,   79.0183029,   12.8887997
   1861,   79.8163986,   12.8887997
   1862,   80.6146011,   12.8887997
   1863,   81.4128036,   12.8887997
   1864,   82.2108994,   12.8887997
   1865,   83.0091019,   12.8887997
   1866,   83.8072968,   12.8887997
   1867,   84.6054001,   12.8887997
   1868,   85.4036026,   12.8887997
   1869,   86.2017975,   12.8887997
   1870,          87.,   12.8887997
   1871,           0.,   13.6943998
   1872,  0.798165977,   13.6943998
   1873,   1.59633005,   13.6943998
   1874,      2.39449,   13.6943998
   1875,   3.19266009,   13.6943998
   1876,   3.99081993,   13.6943998
   1877,   4.78899002,   13.6943998
   1878,    5.5871501,   13.6943998
   1879,   6.38532019,   13.6943998
   1880,   7.18347979,   13.6943998
   1881,   7.98164988,   13.6943998
   1882,   8.77980995,   13.6943998
   1883,   9.57798004,   13.6943998
   1884,   10.3760996,   13.6943998
   1885,   11.1743002,   13.6943998
   1886,   11.9723997,   13.6943998
   1887,   12.7706003,   13.6943998
   1888,      13.5688,   13.6943998
   1889,   14.3669004,   13.6943998
   1890,   15.1651001,   13.6943998
   1891,   15.9631996,   13.6943998
   1892,   16.7614002,   13.6943998
   1893,   17.5596008,   13.6943998
   1894,   18.3577003,   13.6943998
   1895,    19.155899,   13.6943998
   1896,   19.9540997,   13.6943998
   1897,   20.7521992,   13.6943998
   1898,   21.5503998,   13.6943998
   1899,   22.3486004,   13.6943998
   1900,   23.1466999,   13.6943998
   1901,   23.9449005,   13.6943998
   1902,   24.7430992,   13.6943998
   1903,   25.5412006,   13.6943998
   1904,   26.3393993,   13.6943998
   1905,   27.1375999,   13.6943998
   1906,   27.9356995,   13.6943998
   1907,   28.7339001,   13.6943998
   1908,   29.5319996,   13.6943998
   1909,   30.3302002,   13.6943998
   1910,   31.1284008,   13.6943998
   1911,   31.9265003,   13.6943998
   1912,   32.7247009,   13.6943998
   1913,   33.5228996,   13.6943998
   1914,   34.3209991,   13.6943998
   1915,   35.1192017,   13.6943998
   1916,   35.9174004,   13.6943998
   1917,   36.7154999,   13.6943998
   1918,   37.5136986,   13.6943998
   1919,   38.3119011,   13.6943998
   1920,   39.1100006,   13.6943998
   1921,   39.9081993,   13.6943998
   1922,   40.7064018,   13.6943998
   1923,   41.5045013,   13.6943998
   1924,      42.3027,   13.6943998
   1925,   43.1008987,   13.6943998
   1926,   43.8989983,   13.6943998
   1927,   44.6972008,   13.6943998
   1928,   45.4953003,   13.6943998
   1929,    46.293499,   13.6943998
   1930,   47.0917015,   13.6943998
   1931,    47.889801,   13.6943998
   1932,   48.6879997,   13.6943998
   1933,   49.4861984,   13.6943998
   1934,   50.2843018,   13.6943998
   1935,   51.0825005,   13.6943998
   1936,   51.8806992,   13.6943998
   1937,   52.6787987,   13.6943998
   1938,   53.4770012,   13.6943998
   1939,   54.2751999,   13.6943998
   1940,   55.0732994,   13.6943998
   1941,   55.8714981,   13.6943998
   1942,   56.6697006,   13.6943998
   1943,   57.4678001,   13.6943998
   1944,   58.2659988,   13.6943998
   1945,   59.0642014,   13.6943998
   1946,   59.8623009,   13.6943998
   1947,   60.6604996,   13.6943998
   1948,   61.4586983,   13.6943998
   1949,   62.2568016,   13.6943998
   1950,   63.0550003,   13.6943998
   1951,   63.8530998,   13.6943998
   1952,   64.6512985,   13.6943998
   1953,    65.449501,   13.6943998
   1954,   66.2475967,   13.6943998
   1955,   67.0457993,   13.6943998
   1956,   67.8440018,   13.6943998
   1957,   68.6420975,   13.6943998
   1958,      69.4403,   13.6943998
   1959,   70.2385025,   13.6943998
   1960,   71.0365982,   13.6943998
   1961,   71.8348007,   13.6943998
   1962,   72.6330032,   13.6943998
   1963,   73.4310989,   13.6943998
   1964,   74.2293015,   13.6943998
   1965,   75.0274963,   13.6943998
   1966,   75.8255997,   13.6943998
   1967,   76.6238022,   13.6943998
   1968,   77.4219971,   13.6943998
   1969,   78.2201004,   13.6943998
   1970,   79.0183029,   13.6943998
   1971,   79.8163986,   13.6943998
   1972,   80.6146011,   13.6943998
   1973,   81.4128036,   13.6943998
   1974,   82.2108994,   13.6943998
   1975,   83.0091019,   13.6943998
   1976,   83.8072968,   13.6943998
   1977,   84.6054001,   13.6943998
   1978,   85.4036026,   13.6943998
   1979,   86.2017975,   13.6943998
   1980,          87.,   13.6943998
   1981,           0.,         14.5
   1982,  0.798165977,         14.5
   1983,   1.59633005,         14.5
   1984,      2.39449,         14.5
   1985,   3.19266009,         14.5
   1986,   3.99081993,         14.5
   1987,   4.78899002,         14.5
   1988,    5.5871501,         14.5
   1989,   6.38532019,         14.5
   1990,   7.18347979,         14.5
   1991,   7.98164988,         14.5
   1992,   8.77980995,         14.5
   1993,   9.57798004,         14.5
   1994,   10.3760996,         14.5
   1995,   11.1743002,         14.5
   1996,   11.9723997,         14.5
   1997,   12.7706003,         14.5
   1998,      13.5688,         14.5
   1999,   14.3669004,         14.5
   2000,   15.1651001,         14.5
   2001,   15.9631996,         14.5
   2002,   16.7614002,         14.5
   2003,   17.5596008,         14.5
   2004,   18.3577003,         14.5
   2005,    19.155899,         14.5
   2006,   19.9540997,         14.5
   2007,   20.7521992,         14.5
   2008,   21.5503998,         14.5
   2009,   22.3486004,         14.5
   2010,   23.1466999,         14.5
   2011,   23.9449005,         14.5
   2012,   24.7430992,         14.5
   2013,   25.5412006,         14.5
   2014,   26.3393993,         14.5
   2015,   27.1375999,         14.5
   2016,   27.9356995,         14.5
   2017,   28.7339001,         14.5
   2018,   29.5319996,         14.5
   2019,   30.3302002,         14.5
   2020,   31.1284008,         14.5
   2021,   31.9265003,         14.5
   2022,   32.7247009,         14.5
   2023,   33.5228996,         14.5
   2024,   34.3209991,         14.5
   2025,   35.1192017,         14.5
   2026,   35.9174004,         14.5
   2027,   36.7154999,         14.5
   2028,   37.5136986,         14.5
   2029,   38.3119011,         14.5
   2030,   39.1100006,         14.5
   2031,   39.9081993,         14.5
   2032,   40.7064018,         14.5
   2033,   41.5045013,         14.5
   2034,      42.3027,         14.5
   2035,   43.1008987,         14.5
   2036,   43.8989983,         14.5
   2037,   44.6972008,         14.5
   2038,   45.4953003,         14.5
   2039,    46.293499,         14.5
   2040,   47.0917015,         14.5
   2041,    47.889801,         14.5
   2042,   48.6879997,         14.5
   2043,   49.4861984,         14.5
   2044,   50.2843018,         14.5
   2045,   51.0825005,         14.5
   2046,   51.8806992,         14.5
   2047,   52.6787987,         14.5
   2048,   53.4770012,         14.5
   2049,   54.2751999,         14.5
   2050,   55.0732994,         14.5
   2051,   55.8714981,         14.5
   2052,   56.6697006,         14.5
   2053,   57.4678001,         14.5
   2054,   58.2659988,         14.5
   2055,   59.0642014,         14.5
   2056,   59.8623009,         14.5
   2057,   60.6604996,         14.5
   2058,   61.4586983,         14.5
   2059,   62.2568016,         14.5
   2060,   63.0550003,         14.5
   2061,   63.8530998,         14.5
   2062,   64.6512985,         14.5
   2063,    65.449501,         14.5
   2064,   66.2475967,         14.5
   2065,   67.0457993,         14.5
   2066,   67.8440018,         14.5
   2067,   68.6420975,         14.5
   2068,      69.4403,         14.5
   2069,   70.2385025,         14.5
   2070,   71.0365982,         14.5
   2071,   71.8348007,         14.5
   2072,   72.6330032,         14.5
   2073,   73.4310989,         14.5
   2074,   74.2293015,         14.5
   2075,   75.0274963,         14.5
   2076,   75.8255997,         14.5
   2077,   76.6238022,         14.5
   2078,   77.4219971,         14.5
   2079,   78.2201004,         14.5
   2080,   79.0183029,         14.5
   2081,   79.8163986,         14.5
   2082,   80.6146011,         14.5
   2083,   81.4128036,         14.5
   2084,   82.2108994,         14.5
   2085,   83.0091019,         14.5
   2086,   83.8072968,         14.5
   2087,   84.6054001,         14.5
   2088,   85.4036026,         14.5
   2089,   86.2017975,         14.5
   2090,          87.,         14.5
   2091,           0.,      15.3055
   2092,  0.798165977,      15.3055
   2093,   1.59633005,      15.3055
   2094,      2.39449,      15.3055
   2095,   3.19266009,      15.3055
   2096,   3.99081993,      15.3055
   2097,   4.78899002,      15.3055
   2098,    5.5871501,      15.3055
   2099,   6.38532019,      15.3055
   2100,   7.18347979,      15.3055
   2101,   7.98164988,      15.3055
   2102,   8.77980995,      15.3055
   2103,   9.57798004,      15.3055
   2104,   10.3760996,      15.3055
   2105,   11.1743002,      15.3055
   2106,   11.9723997,      15.3055
   2107,   12.7706003,      15.3055
   2108,      13.5688,      15.3055
   2109,   14.3669004,      15.3055
   2110,   15.1651001,      15.3055
   2111,   15.9631996,      15.3055
   2112,   16.7614002,      15.3055
   2113,   17.5596008,      15.3055
   2114,   18.3577003,      15.3055
   2115,    19.155899,      15.3055
   2116,   19.9540997,      15.3055
   2117,   20.7521992,      15.3055
   2118,   21.5503998,      15.3055
   2119,   22.3486004,      15.3055
   2120,   23.1466999,      15.3055
   2121,   23.9449005,      15.3055
   2122,   24.7430992,      15.3055
   2123,   25.5412006,      15.3055
   2124,   26.3393993,      15.3055
   2125,   27.1375999,      15.3055
   2126,   27.9356995,      15.3055
   2127,   28.7339001,      15.3055
   2128,   29.5319996,      15.3055
   2129,   30.3302002,      15.3055
   2130,   31.1284008,      15.3055
   2131,   31.9265003,      15.3055
   2132,   32.7247009,      15.3055
   2133,   33.5228996,      15.3055
   2134,   34.3209991,      15.3055
   2135,   35.1192017,      15.3055
   2136,   35.9174004,      15.3055
   2137,   36.7154999,      15.3055
   2138,   37.5136986,      15.3055
   2139,   38.3119011,      15.3055
   2140,   39.1100006,      15.3055
   2141,   39.9081993,      15.3055
   2142,   40.7064018,      15.3055
   2143,   41.5045013,      15.3055
   2144,      42.3027,      15.3055
   2145,   43.1008987,      15.3055
   2146,   43.8989983,      15.3055
   2147,   44.6972008,      15.3055
   2148,   45.4953003,      15.3055
   2149,    46.293499,      15.3055
   2150,   47.0917015,      15.3055
   2151,    47.889801,      15.3055
   2152,   48.6879997,      15.3055
   2153,   49.4861984,      15.3055
   2154,   50.2843018,      15.3055
   2155,   51.0825005,      15.3055
   2156,   51.8806992,      15.3055
   2157,   52.6787987,      15.3055
   2158,   53.4770012,      15.3055
   2159,   54.2751999,      15.3055
   2160,   55.0732994,      15.3055
   2161,   55.8714981,      15.3055
   2162,   56.6697006,      15.3055
   2163,   57.4678001,      15.3055
   2164,   58.2659988,      15.3055
   2165,   59.0642014,      15.3055
   2166,   59.8623009,      15.3055
   2167,   60.6604996,      15.3055
   2168,   61.4586983,      15.3055
   2169,   62.2568016,      15.3055
   2170,   63.0550003,      15.3055
   2171,   63.8530998,      15.3055
   2172,   64.6512985,      15.3055
   2173,    65.449501,      15.3055
   2174,   66.2475967,      15.3055
   2175,   67.0457993,      15.3055
   2176,   67.8440018,      15.3055
   2177,   68.6420975,      15.3055
   2178,      69.4403,      15.3055
   2179,   70.2385025,      15.3055
   2180,   71.0365982,      15.3055
   2181,   71.8348007,      15.3055
   2182,   72.6330032,      15.3055
   2183,   73.4310989,      15.3055
   2184,   74.2293015,      15.3055
   2185,   75.0274963,      15.3055
   2186,   75.8255997,      15.3055
   2187,   76.6238022,      15.3055
   2188,   77.4219971,      15.3055
   2189,   78.2201004,      15.3055
   2190,   79.0183029,      15.3055
   2191,   79.8163986,      15.3055
   2192,   80.6146011,      15.3055
   2193,   81.4128036,      15.3055
   2194,   82.2108994,      15.3055
   2195,   83.0091019,      15.3055
   2196,   83.8072968,      15.3055
   2197,   84.6054001,      15.3055
   2198,   85.4036026,      15.3055
   2199,   86.2017975,      15.3055
   2200,          87.,      15.3055
   2201,           0.,   16.1110992
   2202,  0.798165977,   16.1110992
   2203,   1.59633005,   16.1110992
   2204,      2.39449,   16.1110992
   2205,   3.19266009,   16.1110992
   2206,   3.99081993,   16.1110992
   2207,   4.78899002,   16.1110992
   2208,    5.5871501,   16.1110992
   2209,   6.38532019,   16.1110992
   2210,   7.18347979,   16.1110992
   2211,   7.98164988,   16.1110992
   2212,   8.77980995,   16.1110992
   2213,   9.57798004,   16.1110992
   2214,   10.3760996,   16.1110992
   2215,   11.1743002,   16.1110992
   2216,   11.9723997,   16.1110992
   2217,   12.7706003,   16.1110992
   2218,      13.5688,   16.1110992
   2219,   14.3669004,   16.1110992
   2220,   15.1651001,   16.1110992
   2221,   15.9631996,   16.1110992
   2222,   16.7614002,   16.1110992
   2223,   17.5596008,   16.1110992
   2224,   18.3577003,   16.1110992
   2225,    19.155899,   16.1110992
   2226,   19.9540997,   16.1110992
   2227,   20.7521992,   16.1110992
   2228,   21.5503998,   16.1110992
   2229,   22.3486004,   16.1110992
   2230,   23.1466999,   16.1110992
   2231,   23.9449005,   16.1110992
   2232,   24.7430992,   16.1110992
   2233,   25.5412006,   16.1110992
   2234,   26.3393993,   16.1110992
   2235,   27.1375999,   16.1110992
   2236,   27.9356995,   16.1110992
   2237,   28.7339001,   16.1110992
   2238,   29.5319996,   16.1110992
   2239,   30.3302002,   16.1110992
   2240,   31.1284008,   16.1110992
   2241,   31.9265003,   16.1110992
   2242,   32.7247009,   16.1110992
   2243,   33.5228996,   16.1110992
   2244,   34.3209991,   16.1110992
   2245,   35.1192017,   16.1110992
   2246,   35.9174004,   16.1110992
   2247,   36.7154999,   16.1110992
   2248,   37.5136986,   16.1110992
   2249,   38.3119011,   16.1110992
   2250,   39.1100006,   16.1110992
   2251,   39.9081993,   16.1110992
   2252,   40.7064018,   16.1110992
   2253,   41.5045013,   16.1110992
   2254,      42.3027,   16.1110992
   2255,   43.1008987,   16.1110992
   2256,   43.8989983,   16.1110992
   2257,   44.6972008,   16.1110992
   2258,   45.4953003,   16.1110992
   2259,    46.293499,   16.1110992
   2260,   47.0917015,   16.1110992
   2261,    47.889801,   16.1110992
   2262,   48.6879997,   16.1110992
   2263,   49.4861984,   16.1110992
   2264,   50.2843018,   16.1110992
   2265,   51.0825005,   16.1110992
   2266,   51.8806992,   16.1110992
   2267,   52.6787987,   16.1110992
   2268,   53.4770012,   16.1110992
   2269,   54.2751999,   16.1110992
   2270,   55.0732994,   16.1110992
   2271,   55.8714981,   16.1110992
   2272,   56.6697006,   16.1110992
   2273,   57.4678001,   16.1110992
   2274,   58.2659988,   16.1110992
   2275,   59.0642014,   16.1110992
   2276,   59.8623009,   16.1110992
   2277,   60.6604996,   16.1110992
   2278,   61.4586983,   16.1110992
   2279,   62.2568016,   16.1110992
   2280,   63.0550003,   16.1110992
   2281,   63.8530998,   16.1110992
   2282,   64.6512985,   16.1110992
   2283,    65.449501,   16.1110992
   2284,   66.2475967,   16.1110992
   2285,   67.0457993,   16.1110992
   2286,   67.8440018,   16.1110992
   2287,   68.6420975,   16.1110992
   2288,      69.4403,   16.1110992
   2289,   70.2385025,   16.1110992
   2290,   71.0365982,   16.1110992
   2291,   71.8348007,   16.1110992
   2292,   72.6330032,   16.1110992
   2293,   73.4310989,   16.1110992
   2294,   74.2293015,   16.1110992
   2295,   75.0274963,   16.1110992
   2296,   75.8255997,   16.1110992
   2297,   76.6238022,   16.1110992
   2298,   77.4219971,   16.1110992
   2299,   78.2201004,   16.1110992
   2300,   79.0183029,   16.1110992
   2301,   79.8163986,   16.1110992
   2302,   80.6146011,   16.1110992
   2303,   81.4128036,   16.1110992
   2304,   82.2108994,   16.1110992
   2305,   83.0091019,   16.1110992
   2306,   83.8072968,   16.1110992
   2307,   84.6054001,   16.1110992
   2308,   85.4036026,   16.1110992
   2309,   86.2017975,   16.1110992
   2310,          87.,   16.1110992
   2311,           0.,   16.9165993
   2312,  0.798165977,   16.9165993
   2313,   1.59633005,   16.9165993
   2314,      2.39449,   16.9165993
   2315,   3.19266009,   16.9165993
   2316,   3.99081993,   16.9165993
   2317,   4.78899002,   16.9165993
   2318,    5.5871501,   16.9165993
   2319,   6.38532019,   16.9165993
   2320,   7.18347979,   16.9165993
   2321,   7.98164988,   16.9165993
   2322,   8.77980995,   16.9165993
   2323,   9.57798004,   16.9165993
   2324,   10.3760996,   16.9165993
   2325,   11.1743002,   16.9165993
   2326,   11.9723997,   16.9165993
   2327,   12.7706003,   16.9165993
   2328,      13.5688,   16.9165993
   2329,   14.3669004,   16.9165993
   2330,   15.1651001,   16.9165993
   2331,   15.9631996,   16.9165993
   2332,   16.7614002,   16.9165993
   2333,   17.5596008,   16.9165993
   2334,   18.3577003,   16.9165993
   2335,    19.155899,   16.9165993
   2336,   19.9540997,   16.9165993
   2337,   20.7521992,   16.9165993
   2338,   21.5503998,   16.9165993
   2339,   22.3486004,   16.9165993
   2340,   23.1466999,   16.9165993
   2341,   23.9449005,   16.9165993
   2342,   24.7430992,   16.9165993
   2343,   25.5412006,   16.9165993
   2344,   26.3393993,   16.9165993
   2345,   27.1375999,   16.9165993
   2346,   27.9356995,   16.9165993
   2347,   28.7339001,   16.9165993
   2348,   29.5319996,   16.9165993
   2349,   30.3302002,   16.9165993
   2350,   31.1284008,   16.9165993
   2351,   31.9265003,   16.9165993
   2352,   32.7247009,   16.9165993
   2353,   33.5228996,   16.9165993
   2354,   34.3209991,   16.9165993
   2355,   35.1192017,   16.9165993
   2356,   35.9174004,   16.9165993
   2357,   36.7154999,   16.9165993
   2358,   37.5136986,   16.9165993
   2359,   38.3119011,   16.9165993
   2360,   39.1100006,   16.9165993
   2361,   39.9081993,   16.9165993
   2362,   40.7064018,   16.9165993
   2363,   41.5045013,   16.9165993
   2364,      42.3027,   16.9165993
   2365,   43.1008987,   16.9165993
   2366,   43.8989983,   16.9165993
   2367,   44.6972008,   16.9165993
   2368,   45.4953003,   16.9165993
   2369,    46.293499,   16.9165993
   2370,   47.0917015,   16.9165993
   2371,    47.889801,   16.9165993
   2372,   48.6879997,   16.9165993
   2373,   49.4861984,   16.9165993
   2374,   50.2843018,   16.9165993
   2375,   51.0825005,   16.9165993
   2376,   51.8806992,   16.9165993
   2377,   52.6787987,   16.9165993
   2378,   53.4770012,   16.9165993
   2379,   54.2751999,   16.9165993
   2380,   55.0732994,   16.9165993
   2381,   55.8714981,   16.9165993
   2382,   56.6697006,   16.9165993
   2383,   57.4678001,   16.9165993
   2384,   58.2659988,   16.9165993
   2385,   59.0642014,   16.9165993
   2386,   59.8623009,   16.9165993
   2387,   60.6604996,   16.9165993
   2388,   61.4586983,   16.9165993
   2389,   62.2568016,   16.9165993
   2390,   63.0550003,   16.9165993
   2391,   63.8530998,   16.9165993
   2392,   64.6512985,   16.9165993
   2393,    65.449501,   16.9165993
   2394,   66.2475967,   16.9165993
   2395,   67.0457993,   16.9165993
   2396,   67.8440018,   16.9165993
   2397,   68.6420975,   16.9165993
   2398,      69.4403,   16.9165993
   2399,   70.2385025,   16.9165993
   2400,   71.0365982,   16.9165993
   2401,   71.8348007,   16.9165993
   2402,   72.6330032,   16.9165993
   2403,   73.4310989,   16.9165993
   2404,   74.2293015,   16.9165993
   2405,   75.0274963,   16.9165993
   2406,   75.8255997,   16.9165993
   2407,   76.6238022,   16.9165993
   2408,   77.4219971,   16.9165993
   2409,   78.2201004,   16.9165993
   2410,   79.0183029,   16.9165993
   2411,   79.8163986,   16.9165993
   2412,   80.6146011,   16.9165993
   2413,   81.4128036,   16.9165993
   2414,   82.2108994,   16.9165993
   2415,   83.0091019,   16.9165993
   2416,   83.8072968,   16.9165993
   2417,   84.6054001,   16.9165993
   2418,   85.4036026,   16.9165993
   2419,   86.2017975,   16.9165993
   2420,          87.,   16.9165993
   2421,           0.,   17.7222004
   2422,  0.798165977,   17.7222004
   2423,   1.59633005,   17.7222004
   2424,      2.39449,   17.7222004
   2425,   3.19266009,   17.7222004
   2426,   3.99081993,   17.7222004
   2427,   4.78899002,   17.7222004
   2428,    5.5871501,   17.7222004
   2429,   6.38532019,   17.7222004
   2430,   7.18347979,   17.7222004
   2431,   7.98164988,   17.7222004
   2432,   8.77980995,   17.7222004
   2433,   9.57798004,   17.7222004
   2434,   10.3760996,   17.7222004
   2435,   11.1743002,   17.7222004
   2436,   11.9723997,   17.7222004
   2437,   12.7706003,   17.7222004
   2438,      13.5688,   17.7222004
   2439,   14.3669004,   17.7222004
   2440,   15.1651001,   17.7222004
   2441,   15.9631996,   17.7222004
   2442,   16.7614002,   17.7222004
   2443,   17.5596008,   17.7222004
   2444,   18.3577003,   17.7222004
   2445,    19.155899,   17.7222004
   2446,   19.9540997,   17.7222004
   2447,   20.7521992,   17.7222004
   2448,   21.5503998,   17.7222004
   2449,   22.3486004,   17.7222004
   2450,   23.1466999,   17.7222004
   2451,   23.9449005,   17.7222004
   2452,   24.7430992,   17.7222004
   2453,   25.5412006,   17.7222004
   2454,   26.3393993,   17.7222004
   2455,   27.1375999,   17.7222004
   2456,   27.9356995,   17.7222004
   2457,   28.7339001,   17.7222004
   2458,   29.5319996,   17.7222004
   2459,   30.3302002,   17.7222004
   2460,   31.1284008,   17.7222004
   2461,   31.9265003,   17.7222004
   2462,   32.7247009,   17.7222004
   2463,   33.5228996,   17.7222004
   2464,   34.3209991,   17.7222004
   2465,   35.1192017,   17.7222004
   2466,   35.9174004,   17.7222004
   2467,   36.7154999,   17.7222004
   2468,   37.5136986,   17.7222004
   2469,   38.3119011,   17.7222004
   2470,   39.1100006,   17.7222004
   2471,   39.9081993,   17.7222004
   2472,   40.7064018,   17.7222004
   2473,   41.5045013,   17.7222004
   2474,      42.3027,   17.7222004
   2475,   43.1008987,   17.7222004
   2476,   43.8989983,   17.7222004
   2477,   44.6972008,   17.7222004
   2478,   45.4953003,   17.7222004
   2479,    46.293499,   17.7222004
   2480,   47.0917015,   17.7222004
   2481,    47.889801,   17.7222004
   2482,   48.6879997,   17.7222004
   2483,   49.4861984,   17.7222004
   2484,   50.2843018,   17.7222004
   2485,   51.0825005,   17.7222004
   2486,   51.8806992,   17.7222004
   2487,   52.6787987,   17.7222004
   2488,   53.4770012,   17.7222004
   2489,   54.2751999,   17.7222004
   2490,   55.0732994,   17.7222004
   2491,   55.8714981,   17.7222004
   2492,   56.6697006,   17.7222004
   2493,   57.4678001,   17.7222004
   2494,   58.2659988,   17.7222004
   2495,   59.0642014,   17.7222004
   2496,   59.8623009,   17.7222004
   2497,   60.6604996,   17.7222004
   2498,   61.4586983,   17.7222004
   2499,   62.2568016,   17.7222004
   2500,   63.0550003,   17.7222004
   2501,   63.8530998,   17.7222004
   2502,   64.6512985,   17.7222004
   2503,    65.449501,   17.7222004
   2504,   66.2475967,   17.7222004
   2505,   67.0457993,   17.7222004
   2506,   67.8440018,   17.7222004
   2507,   68.6420975,   17.7222004
   2508,      69.4403,   17.7222004
   2509,   70.2385025,   17.7222004
   2510,   71.0365982,   17.7222004
   2511,   71.8348007,   17.7222004
   2512,   72.6330032,   17.7222004
   2513,   73.4310989,   17.7222004
   2514,   74.2293015,   17.7222004
   2515,   75.0274963,   17.7222004
   2516,   75.8255997,   17.7222004
   2517,   76.6238022,   17.7222004
   2518,   77.4219971,   17.7222004
   2519,   78.2201004,   17.7222004
   2520,   79.0183029,   17.7222004
   2521,   79.8163986,   17.7222004
   2522,   80.6146011,   17.7222004
   2523,   81.4128036,   17.7222004
   2524,   82.2108994,   17.7222004
   2525,   83.0091019,   17.7222004
   2526,   83.8072968,   17.7222004
   2527,   84.6054001,   17.7222004
   2528,   85.4036026,   17.7222004
   2529,   86.2017975,   17.7222004
   2530,          87.,   17.7222004
   2531,           0.,   18.5277004
   2532,  0.798165977,   18.5277004
   2533,   1.59633005,   18.5277004
   2534,      2.39449,   18.5277004
   2535,   3.19266009,   18.5277004
   2536,   3.99081993,   18.5277004
   2537,   4.78899002,   18.5277004
   2538,    5.5871501,   18.5277004
   2539,   6.38532019,   18.5277004
   2540,   7.18347979,   18.5277004
   2541,   7.98164988,   18.5277004
   2542,   8.77980995,   18.5277004
   2543,   9.57798004,   18.5277004
   2544,   10.3760996,   18.5277004
   2545,   11.1743002,   18.5277004
   2546,   11.9723997,   18.5277004
   2547,   12.7706003,   18.5277004
   2548,      13.5688,   18.5277004
   2549,   14.3669004,   18.5277004
   2550,   15.1651001,   18.5277004
   2551,   15.9631996,   18.5277004
   2552,   16.7614002,   18.5277004
   2553,   17.5596008,   18.5277004
   2554,   18.3577003,   18.5277004
   2555,    19.155899,   18.5277004
   2556,   19.9540997,   18.5277004
   2557,   20.7521992,   18.5277004
   2558,   21.5503998,   18.5277004
   2559,   22.3486004,   18.5277004
   2560,   23.1466999,   18.5277004
   2561,   23.9449005,   18.5277004
   2562,   24.7430992,   18.5277004
   2563,   25.5412006,   18.5277004
   2564,   26.3393993,   18.5277004
   2565,   27.1375999,   18.5277004
   2566,   27.9356995,   18.5277004
   2567,   28.7339001,   18.5277004
   2568,   29.5319996,   18.5277004
   2569,   30.3302002,   18.5277004
   2570,   31.1284008,   18.5277004
   2571,   31.9265003,   18.5277004
   2572,   32.7247009,   18.5277004
   2573,   33.5228996,   18.5277004
   2574,   34.3209991,   18.5277004
   2575,   35.1192017,   18.5277004
   2576,   35.9174004,   18.5277004
   2577,   36.7154999,   18.5277004
   2578,   37.5136986,   18.5277004
   2579,   38.3119011,   18.5277004
   2580,   39.1100006,   18.5277004
   2581,   39.9081993,   18.5277004
   2582,   40.7064018,   18.5277004
   2583,   41.5045013,   18.5277004
   2584,      42.3027,   18.5277004
   2585,   43.1008987,   18.5277004
   2586,   43.8989983,   18.5277004
   2587,   44.6972008,   18.5277004
   2588,   45.4953003,   18.5277004
   2589,    46.293499,   18.5277004
   2590,   47.0917015,   18.5277004
   2591,    47.889801,   18.5277004
   2592,   48.6879997,   18.5277004
   2593,   49.4861984,   18.5277004
   2594,   50.2843018,   18.5277004
   2595,   51.0825005,   18.5277004
   2596,   51.8806992,   18.5277004
   2597,   52.6787987,   18.5277004
   2598,   53.4770012,   18.5277004
   2599,   54.2751999,   18.5277004
   2600,   55.0732994,   18.5277004
   2601,   55.8714981,   18.5277004
   2602,   56.6697006,   18.5277004
   2603,   57.4678001,   18.5277004
   2604,   58.2659988,   18.5277004
   2605,   59.0642014,   18.5277004
   2606,   59.8623009,   18.5277004
   2607,   60.6604996,   18.5277004
   2608,   61.4586983,   18.5277004
   2609,   62.2568016,   18.5277004
   2610,   63.0550003,   18.5277004
   2611,   63.8530998,   18.5277004
   2612,   64.6512985,   18.5277004
   2613,    65.449501,   18.5277004
   2614,   66.2475967,   18.5277004
   2615,   67.0457993,   18.5277004
   2616,   67.8440018,   18.5277004
   2617,   68.6420975,   18.5277004
   2618,      69.4403,   18.5277004
   2619,   70.2385025,   18.5277004
   2620,   71.0365982,   18.5277004
   2621,   71.8348007,   18.5277004
   2622,   72.6330032,   18.5277004
   2623,   73.4310989,   18.5277004
   2624,   74.2293015,   18.5277004
   2625,   75.0274963,   18.5277004
   2626,   75.8255997,   18.5277004
   2627,   76.6238022,   18.5277004
   2628,   77.4219971,   18.5277004
   2629,   78.2201004,   18.5277004
   2630,   79.0183029,   18.5277004
   2631,   79.8163986,   18.5277004
   2632,   80.6146011,   18.5277004
   2633,   81.4128036,   18.5277004
   2634,   82.2108994,   18.5277004
   2635,   83.0091019,   18.5277004
   2636,   83.8072968,   18.5277004
   2637,   84.6054001,   18.5277004
   2638,   85.4036026,   18.5277004
   2639,   86.2017975,   18.5277004
   2640,          87.,   18.5277004
   2641,           0.,   19.3332996
   2642,  0.798165977,   19.3332996
   2643,   1.59633005,   19.3332996
   2644,      2.39449,   19.3332996
   2645,   3.19266009,   19.3332996
   2646,   3.99081993,   19.3332996
   2647,   4.78899002,   19.3332996
   2648,    5.5871501,   19.3332996
   2649,   6.38532019,   19.3332996
   2650,   7.18347979,   19.3332996
   2651,   7.98164988,   19.3332996
   2652,   8.77980995,   19.3332996
   2653,   9.57798004,   19.3332996
   2654,   10.3760996,   19.3332996
   2655,   11.1743002,   19.3332996
   2656,   11.9723997,   19.3332996
   2657,   12.7706003,   19.3332996
   2658,      13.5688,   19.3332996
   2659,   14.3669004,   19.3332996
   2660,   15.1651001,   19.3332996
   2661,   15.9631996,   19.3332996
   2662,   16.7614002,   19.3332996
   2663,   17.5596008,   19.3332996
   2664,   18.3577003,   19.3332996
   2665,    19.155899,   19.3332996
   2666,   19.9540997,   19.3332996
   2667,   20.7521992,   19.3332996
   2668,   21.5503998,   19.3332996
   2669,   22.3486004,   19.3332996
   2670,   23.1466999,   19.3332996
   2671,   23.9449005,   19.3332996
   2672,   24.7430992,   19.3332996
   2673,   25.5412006,   19.3332996
   2674,   26.3393993,   19.3332996
   2675,   27.1375999,   19.3332996
   2676,   27.9356995,   19.3332996
   2677,   28.7339001,   19.3332996
   2678,   29.5319996,   19.3332996
   2679,   30.3302002,   19.3332996
   2680,   31.1284008,   19.3332996
   2681,   31.9265003,   19.3332996
   2682,   32.7247009,   19.3332996
   2683,   33.5228996,   19.3332996
   2684,   34.3209991,   19.3332996
   2685,   35.1192017,   19.3332996
   2686,   35.9174004,   19.3332996
   2687,   36.7154999,   19.3332996
   2688,   37.5136986,   19.3332996
   2689,   38.3119011,   19.3332996
   2690,   39.1100006,   19.3332996
   2691,   39.9081993,   19.3332996
   2692,   40.7064018,   19.3332996
   2693,   41.5045013,   19.3332996
   2694,      42.3027,   19.3332996
   2695,   43.1008987,   19.3332996
   2696,   43.8989983,   19.3332996
   2697,   44.6972008,   19.3332996
   2698,   45.4953003,   19.3332996
   2699,    46.293499,   19.3332996
   2700,   47.0917015,   19.3332996
   2701,    47.889801,   19.3332996
   2702,   48.6879997,   19.3332996
   2703,   49.4861984,   19.3332996
   2704,   50.2843018,   19.3332996
   2705,   51.0825005,   19.3332996
   2706,   51.8806992,   19.3332996
   2707,   52.6787987,   19.3332996
   2708,   53.4770012,   19.3332996
   2709,   54.2751999,   19.3332996
   2710,   55.0732994,   19.3332996
   2711,   55.8714981,   19.3332996
   2712,   56.6697006,   19.3332996
   2713,   57.4678001,   19.3332996
   2714,   58.2659988,   19.3332996
   2715,   59.0642014,   19.3332996
   2716,   59.8623009,   19.3332996
   2717,   60.6604996,   19.3332996
   2718,   61.4586983,   19.3332996
   2719,   62.2568016,   19.3332996
   2720,   63.0550003,   19.3332996
   2721,   63.8530998,   19.3332996
   2722,   64.6512985,   19.3332996
   2723,    65.449501,   19.3332996
   2724,   66.2475967,   19.3332996
   2725,   67.0457993,   19.3332996
   2726,   67.8440018,   19.3332996
   2727,   68.6420975,   19.3332996
   2728,      69.4403,   19.3332996
   2729,   70.2385025,   19.3332996
   2730,   71.0365982,   19.3332996
   2731,   71.8348007,   19.3332996
   2732,   72.6330032,   19.3332996
   2733,   73.4310989,   19.3332996
   2734,   74.2293015,   19.3332996
   2735,   75.0274963,   19.3332996
   2736,   75.8255997,   19.3332996
   2737,   76.6238022,   19.3332996
   2738,   77.4219971,   19.3332996
   2739,   78.2201004,   19.3332996
   2740,   79.0183029,   19.3332996
   2741,   79.8163986,   19.3332996
   2742,   80.6146011,   19.3332996
   2743,   81.4128036,   19.3332996
   2744,   82.2108994,   19.3332996
   2745,   83.0091019,   19.3332996
   2746,   83.8072968,   19.3332996
   2747,   84.6054001,   19.3332996
   2748,   85.4036026,   19.3332996
   2749,   86.2017975,   19.3332996
   2750,          87.,   19.3332996
   2751,           0.,   20.1387997
   2752,  0.798165977,   20.1387997
   2753,   1.59633005,   20.1387997
   2754,      2.39449,   20.1387997
   2755,   3.19266009,   20.1387997
   2756,   3.99081993,   20.1387997
   2757,   4.78899002,   20.1387997
   2758,    5.5871501,   20.1387997
   2759,   6.38532019,   20.1387997
   2760,   7.18347979,   20.1387997
   2761,   7.98164988,   20.1387997
   2762,   8.77980995,   20.1387997
   2763,   9.57798004,   20.1387997
   2764,   10.3760996,   20.1387997
   2765,   11.1743002,   20.1387997
   2766,   11.9723997,   20.1387997
   2767,   12.7706003,   20.1387997
   2768,      13.5688,   20.1387997
   2769,   14.3669004,   20.1387997
   2770,   15.1651001,   20.1387997
   2771,   15.9631996,   20.1387997
   2772,   16.7614002,   20.1387997
   2773,   17.5596008,   20.1387997
   2774,   18.3577003,   20.1387997
   2775,    19.155899,   20.1387997
   2776,   19.9540997,   20.1387997
   2777,   20.7521992,   20.1387997
   2778,   21.5503998,   20.1387997
   2779,   22.3486004,   20.1387997
   2780,   23.1466999,   20.1387997
   2781,   23.9449005,   20.1387997
   2782,   24.7430992,   20.1387997
   2783,   25.5412006,   20.1387997
   2784,   26.3393993,   20.1387997
   2785,   27.1375999,   20.1387997
   2786,   27.9356995,   20.1387997
   2787,   28.7339001,   20.1387997
   2788,   29.5319996,   20.1387997
   2789,   30.3302002,   20.1387997
   2790,   31.1284008,   20.1387997
   2791,   31.9265003,   20.1387997
   2792,   32.7247009,   20.1387997
   2793,   33.5228996,   20.1387997
   2794,   34.3209991,   20.1387997
   2795,   35.1192017,   20.1387997
   2796,   35.9174004,   20.1387997
   2797,   36.7154999,   20.1387997
   2798,   37.5136986,   20.1387997
   2799,   38.3119011,   20.1387997
   2800,   39.1100006,   20.1387997
   2801,   39.9081993,   20.1387997
   2802,   40.7064018,   20.1387997
   2803,   41.5045013,   20.1387997
   2804,      42.3027,   20.1387997
   2805,   43.1008987,   20.1387997
   2806,   43.8989983,   20.1387997
   2807,   44.6972008,   20.1387997
   2808,   45.4953003,   20.1387997
   2809,    46.293499,   20.1387997
   2810,   47.0917015,   20.1387997
   2811,    47.889801,   20.1387997
   2812,   48.6879997,   20.1387997
   2813,   49.4861984,   20.1387997
   2814,   50.2843018,   20.1387997
   2815,   51.0825005,   20.1387997
   2816,   51.8806992,   20.1387997
   2817,   52.6787987,   20.1387997
   2818,   53.4770012,   20.1387997
   2819,   54.2751999,   20.1387997
   2820,   55.0732994,   20.1387997
   2821,   55.8714981,   20.1387997
   2822,   56.6697006,   20.1387997
   2823,   57.4678001,   20.1387997
   2824,   58.2659988,   20.1387997
   2825,   59.0642014,   20.1387997
   2826,   59.8623009,   20.1387997
   2827,   60.6604996,   20.1387997
   2828,   61.4586983,   20.1387997
   2829,   62.2568016,   20.1387997
   2830,   63.0550003,   20.1387997
   2831,   63.8530998,   20.1387997
   2832,   64.6512985,   20.1387997
   2833,    65.449501,   20.1387997
   2834,   66.2475967,   20.1387997
   2835,   67.0457993,   20.1387997
   2836,   67.8440018,   20.1387997
   2837,   68.6420975,   20.1387997
   2838,      69.4403,   20.1387997
   2839,   70.2385025,   20.1387997
   2840,   71.0365982,   20.1387997
   2841,   71.8348007,   20.1387997
   2842,   72.6330032,   20.1387997
   2843,   73.4310989,   20.1387997
   2844,   74.2293015,   20.1387997
   2845,   75.0274963,   20.1387997
   2846,   75.8255997,   20.1387997
   2847,   76.6238022,   20.1387997
   2848,   77.4219971,   20.1387997
   2849,   78.2201004,   20.1387997
   2850,   79.0183029,   20.1387997
   2851,   79.8163986,   20.1387997
   2852,   80.6146011,   20.1387997
   2853,   81.4128036,   20.1387997
   2854,   82.2108994,   20.1387997
   2855,   83.0091019,   20.1387997
   2856,   83.8072968,   20.1387997
   2857,   84.6054001,   20.1387997
   2858,   85.4036026,   20.1387997
   2859,   86.2017975,   20.1387997
   2860,          87.,   20.1387997
   2861,           0.,   20.9444008
   2862,  0.798165977,   20.9444008
   2863,   1.59633005,   20.9444008
   2864,      2.39449,   20.9444008
   2865,   3.19266009,   20.9444008
   2866,   3.99081993,   20.9444008
   2867,   4.78899002,   20.9444008
   2868,    5.5871501,   20.9444008
   2869,   6.38532019,   20.9444008
   2870,   7.18347979,   20.9444008
   2871,   7.98164988,   20.9444008
   2872,   8.77980995,   20.9444008
   2873,   9.57798004,   20.9444008
   2874,   10.3760996,   20.9444008
   2875,   11.1743002,   20.9444008
   2876,   11.9723997,   20.9444008
   2877,   12.7706003,   20.9444008
   2878,      13.5688,   20.9444008
   2879,   14.3669004,   20.9444008
   2880,   15.1651001,   20.9444008
   2881,   15.9631996,   20.9444008
   2882,   16.7614002,   20.9444008
   2883,   17.5596008,   20.9444008
   2884,   18.3577003,   20.9444008
   2885,    19.155899,   20.9444008
   2886,   19.9540997,   20.9444008
   2887,   20.7521992,   20.9444008
   2888,   21.5503998,   20.9444008
   2889,   22.3486004,   20.9444008
   2890,   23.1466999,   20.9444008
   2891,   23.9449005,   20.9444008
   2892,   24.7430992,   20.9444008
   2893,   25.5412006,   20.9444008
   2894,   26.3393993,   20.9444008
   2895,   27.1375999,   20.9444008
   2896,   27.9356995,   20.9444008
   2897,   28.7339001,   20.9444008
   2898,   29.5319996,   20.9444008
   2899,   30.3302002,   20.9444008
   2900,   31.1284008,   20.9444008
   2901,   31.9265003,   20.9444008
   2902,   32.7247009,   20.9444008
   2903,   33.5228996,   20.9444008
   2904,   34.3209991,   20.9444008
   2905,   35.1192017,   20.9444008
   2906,   35.9174004,   20.9444008
   2907,   36.7154999,   20.9444008
   2908,   37.5136986,   20.9444008
   2909,   38.3119011,   20.9444008
   2910,   39.1100006,   20.9444008
   2911,   39.9081993,   20.9444008
   2912,   40.7064018,   20.9444008
   2913,   41.5045013,   20.9444008
   2914,      42.3027,   20.9444008
   2915,   43.1008987,   20.9444008
   2916,   43.8989983,   20.9444008
   2917,   44.6972008,   20.9444008
   2918,   45.4953003,   20.9444008
   2919,    46.293499,   20.9444008
   2920,   47.0917015,   20.9444008
   2921,    47.889801,   20.9444008
   2922,   48.6879997,   20.9444008
   2923,   49.4861984,   20.9444008
   2924,   50.2843018,   20.9444008
   2925,   51.0825005,   20.9444008
   2926,   51.8806992,   20.9444008
   2927,   52.6787987,   20.9444008
   2928,   53.4770012,   20.9444008
   2929,   54.2751999,   20.9444008
   2930,   55.0732994,   20.9444008
   2931,   55.8714981,   20.9444008
   2932,   56.6697006,   20.9444008
   2933,   57.4678001,   20.9444008
   2934,   58.2659988,   20.9444008
   2935,   59.0642014,   20.9444008
   2936,   59.8623009,   20.9444008
   2937,   60.6604996,   20.9444008
   2938,   61.4586983,   20.9444008
   2939,   62.2568016,   20.9444008
   2940,   63.0550003,   20.9444008
   2941,   63.8530998,   20.9444008
   2942,   64.6512985,   20.9444008
   2943,    65.449501,   20.9444008
   2944,   66.2475967,   20.9444008
   2945,   67.0457993,   20.9444008
   2946,   67.8440018,   20.9444008
   2947,   68.6420975,   20.9444008
   2948,      69.4403,   20.9444008
   2949,   70.2385025,   20.9444008
   2950,   71.0365982,   20.9444008
   2951,   71.8348007,   20.9444008
   2952,   72.6330032,   20.9444008
   2953,   73.4310989,   20.9444008
   2954,   74.2293015,   20.9444008
   2955,   75.0274963,   20.9444008
   2956,   75.8255997,   20.9444008
   2957,   76.6238022,   20.9444008
   2958,   77.4219971,   20.9444008
   2959,   78.2201004,   20.9444008
   2960,   79.0183029,   20.9444008
   2961,   79.8163986,   20.9444008
   2962,   80.6146011,   20.9444008
   2963,   81.4128036,   20.9444008
   2964,   82.2108994,   20.9444008
   2965,   83.0091019,   20.9444008
   2966,   83.8072968,   20.9444008
   2967,   84.6054001,   20.9444008
   2968,   85.4036026,   20.9444008
   2969,   86.2017975,   20.9444008
   2970,          87.,   20.9444008
   2971,           0.,        21.75
   2972,  0.798165977,        21.75
   2973,   1.59633005,        21.75
   2974,      2.39449,        21.75
   2975,   3.19266009,        21.75
   2976,   3.99081993,        21.75
   2977,   4.78899002,        21.75
   2978,    5.5871501,        21.75
   2979,   6.38532019,        21.75
   2980,   7.18347979,        21.75
   2981,   7.98164988,        21.75
   2982,   8.77980995,        21.75
   2983,   9.57798004,        21.75
   2984,   10.3760996,        21.75
   2985,   11.1743002,        21.75
   2986,   11.9723997,        21.75
   2987,   12.7706003,        21.75
   2988,      13.5688,        21.75
   2989,   14.3669004,        21.75
   2990,   15.1651001,        21.75
   2991,   15.9631996,        21.75
   2992,   16.7614002,        21.75
   2993,   17.5596008,        21.75
   2994,   18.3577003,        21.75
   2995,    19.155899,        21.75
   2996,   19.9540997,        21.75
   2997,   20.7521992,        21.75
   2998,   21.5503998,        21.75
   2999,   22.3486004,        21.75
   3000,   23.1466999,        21.75
   3001,   23.9449005,        21.75
   3002,   24.7430992,        21.75
   3003,   25.5412006,        21.75
   3004,   26.3393993,        21.75
   3005,   27.1375999,        21.75
   3006,   27.9356995,        21.75
   3007,   28.7339001,        21.75
   3008,   29.5319996,        21.75
   3009,   30.3302002,        21.75
   3010,   31.1284008,        21.75
   3011,   31.9265003,        21.75
   3012,   32.7247009,        21.75
   3013,   33.5228996,        21.75
   3014,   34.3209991,        21.75
   3015,   35.1192017,        21.75
   3016,   35.9174004,        21.75
   3017,   36.7154999,        21.75
   3018,   37.5136986,        21.75
   3019,   38.3119011,        21.75
   3020,   39.1100006,        21.75
   3021,   39.9081993,        21.75
   3022,   40.7064018,        21.75
   3023,   41.5045013,        21.75
   3024,      42.3027,        21.75
   3025,   43.1008987,        21.75
   3026,   43.8989983,        21.75
   3027,   44.6972008,        21.75
   3028,   45.4953003,        21.75
   3029,    46.293499,        21.75
   3030,   47.0917015,        21.75
   3031,    47.889801,        21.75
   3032,   48.6879997,        21.75
   3033,   49.4861984,        21.75
   3034,   50.2843018,        21.75
   3035,   51.0825005,        21.75
   3036,   51.8806992,        21.75
   3037,   52.6787987,        21.75
   3038,   53.4770012,        21.75
   3039,   54.2751999,        21.75
   3040,   55.0732994,        21.75
   3041,   55.8714981,        21.75
   3042,   56.6697006,        21.75
   3043,   57.4678001,        21.75
   3044,   58.2659988,        21.75
   3045,   59.0642014,        21.75
   3046,   59.8623009,        21.75
   3047,   60.6604996,        21.75
   3048,   61.4586983,        21.75
   3049,   62.2568016,        21.75
   3050,   63.0550003,        21.75
   3051,   63.8530998,        21.75
   3052,   64.6512985,        21.75
   3053,    65.449501,        21.75
   3054,   66.2475967,        21.75
   3055,   67.0457993,        21.75
   3056,   67.8440018,        21.75
   3057,   68.6420975,        21.75
   3058,      69.4403,        21.75
   3059,   70.2385025,        21.75
   3060,   71.0365982,        21.75
   3061,   71.8348007,        21.75
   3062,   72.6330032,        21.75
   3063,   73.4310989,        21.75
   3064,   74.2293015,        21.75
   3065,   75.0274963,        21.75
   3066,   75.8255997,        21.75
   3067,   76.6238022,        21.75
   3068,   77.4219971,        21.75
   3069,   78.2201004,        21.75
   3070,   79.0183029,        21.75
   3071,   79.8163986,        21.75
   3072,   80.6146011,        21.75
   3073,   81.4128036,        21.75
   3074,   82.2108994,        21.75
   3075,   83.0091019,        21.75
   3076,   83.8072968,        21.75
   3077,   84.6054001,        21.75
   3078,   85.4036026,        21.75
   3079,   86.2017975,        21.75
   3080,          87.,        21.75
   3081,           0.,      22.5555
   3082,  0.798165977,      22.5555
   3083,   1.59633005,      22.5555
   3084,      2.39449,      22.5555
   3085,   3.19266009,      22.5555
   3086,   3.99081993,      22.5555
   3087,   4.78899002,      22.5555
   3088,    5.5871501,      22.5555
   3089,   6.38532019,      22.5555
   3090,   7.18347979,      22.5555
   3091,   7.98164988,      22.5555
   3092,   8.77980995,      22.5555
   3093,   9.57798004,      22.5555
   3094,   10.3760996,      22.5555
   3095,   11.1743002,      22.5555
   3096,   11.9723997,      22.5555
   3097,   12.7706003,      22.5555
   3098,      13.5688,      22.5555
   3099,   14.3669004,      22.5555
   3100,   15.1651001,      22.5555
   3101,   15.9631996,      22.5555
   3102,   16.7614002,      22.5555
   3103,   17.5596008,      22.5555
   3104,   18.3577003,      22.5555
   3105,    19.155899,      22.5555
   3106,   19.9540997,      22.5555
   3107,   20.7521992,      22.5555
   3108,   21.5503998,      22.5555
   3109,   22.3486004,      22.5555
   3110,   23.1466999,      22.5555
   3111,   23.9449005,      22.5555
   3112,   24.7430992,      22.5555
   3113,   25.5412006,      22.5555
   3114,   26.3393993,      22.5555
   3115,   27.1375999,      22.5555
   3116,   27.9356995,      22.5555
   3117,   28.7339001,      22.5555
   3118,   29.5319996,      22.5555
   3119,   30.3302002,      22.5555
   3120,   31.1284008,      22.5555
   3121,   31.9265003,      22.5555
   3122,   32.7247009,      22.5555
   3123,   33.5228996,      22.5555
   3124,   34.3209991,      22.5555
   3125,   35.1192017,      22.5555
   3126,   35.9174004,      22.5555
   3127,   36.7154999,      22.5555
   3128,   37.5136986,      22.5555
   3129,   38.3119011,      22.5555
   3130,   39.1100006,      22.5555
   3131,   39.9081993,      22.5555
   3132,   40.7064018,      22.5555
   3133,   41.5045013,      22.5555
   3134,      42.3027,      22.5555
   3135,   43.1008987,      22.5555
   3136,   43.8989983,      22.5555
   3137,   44.6972008,      22.5555
   3138,   45.4953003,      22.5555
   3139,    46.293499,      22.5555
   3140,   47.0917015,      22.5555
   3141,    47.889801,      22.5555
   3142,   48.6879997,      22.5555
   3143,   49.4861984,      22.5555
   3144,   50.2843018,      22.5555
   3145,   51.0825005,      22.5555
   3146,   51.8806992,      22.5555
   3147,   52.6787987,      22.5555
   3148,   53.4770012,      22.5555
   3149,   54.2751999,      22.5555
   3150,   55.0732994,      22.5555
   3151,   55.8714981,      22.5555
   3152,   56.6697006,      22.5555
   3153,   57.4678001,      22.5555
   3154,   58.2659988,      22.5555
   3155,   59.0642014,      22.5555
   3156,   59.8623009,      22.5555
   3157,   60.6604996,      22.5555
   3158,   61.4586983,      22.5555
   3159,   62.2568016,      22.5555
   3160,   63.0550003,      22.5555
   3161,   63.8530998,      22.5555
   3162,   64.6512985,      22.5555
   3163,    65.449501,      22.5555
   3164,   66.2475967,      22.5555
   3165,   67.0457993,      22.5555
   3166,   67.8440018,      22.5555
   3167,   68.6420975,      22.5555
   3168,      69.4403,      22.5555
   3169,   70.2385025,      22.5555
   3170,   71.0365982,      22.5555
   3171,   71.8348007,      22.5555
   3172,   72.6330032,      22.5555
   3173,   73.4310989,      22.5555
   3174,   74.2293015,      22.5555
   3175,   75.0274963,      22.5555
   3176,   75.8255997,      22.5555
   3177,   76.6238022,      22.5555
   3178,   77.4219971,      22.5555
   3179,   78.2201004,      22.5555
   3180,   79.0183029,      22.5555
   3181,   79.8163986,      22.5555
   3182,   80.6146011,      22.5555
   3183,   81.4128036,      22.5555
   3184,   82.2108994,      22.5555
   3185,   83.0091019,      22.5555
   3186,   83.8072968,      22.5555
   3187,   84.6054001,      22.5555
   3188,   85.4036026,      22.5555
   3189,   86.2017975,      22.5555
   3190,          87.,      22.5555
   3191,           0.,   23.3610992
   3192,  0.798165977,   23.3610992
   3193,   1.59633005,   23.3610992
   3194,      2.39449,   23.3610992
   3195,   3.19266009,   23.3610992
   3196,   3.99081993,   23.3610992
   3197,   4.78899002,   23.3610992
   3198,    5.5871501,   23.3610992
   3199,   6.38532019,   23.3610992
   3200,   7.18347979,   23.3610992
   3201,   7.98164988,   23.3610992
   3202,   8.77980995,   23.3610992
   3203,   9.57798004,   23.3610992
   3204,   10.3760996,   23.3610992
   3205,   11.1743002,   23.3610992
   3206,   11.9723997,   23.3610992
   3207,   12.7706003,   23.3610992
   3208,      13.5688,   23.3610992
   3209,   14.3669004,   23.3610992
   3210,   15.1651001,   23.3610992
   3211,   15.9631996,   23.3610992
   3212,   16.7614002,   23.3610992
   3213,   17.5596008,   23.3610992
   3214,   18.3577003,   23.3610992
   3215,    19.155899,   23.3610992
   3216,   19.9540997,   23.3610992
   3217,   20.7521992,   23.3610992
   3218,   21.5503998,   23.3610992
   3219,   22.3486004,   23.3610992
   3220,   23.1466999,   23.3610992
   3221,   23.9449005,   23.3610992
   3222,   24.7430992,   23.3610992
   3223,   25.5412006,   23.3610992
   3224,   26.3393993,   23.3610992
   3225,   27.1375999,   23.3610992
   3226,   27.9356995,   23.3610992
   3227,   28.7339001,   23.3610992
   3228,   29.5319996,   23.3610992
   3229,   30.3302002,   23.3610992
   3230,   31.1284008,   23.3610992
   3231,   31.9265003,   23.3610992
   3232,   32.7247009,   23.3610992
   3233,   33.5228996,   23.3610992
   3234,   34.3209991,   23.3610992
   3235,   35.1192017,   23.3610992
   3236,   35.9174004,   23.3610992
   3237,   36.7154999,   23.3610992
   3238,   37.5136986,   23.3610992
   3239,   38.3119011,   23.3610992
   3240,   39.1100006,   23.3610992
   3241,   39.9081993,   23.3610992
   3242,   40.7064018,   23.3610992
   3243,   41.5045013,   23.3610992
   3244,      42.3027,   23.3610992
   3245,   43.1008987,   23.3610992
   3246,   43.8989983,   23.3610992
   3247,   44.6972008,   23.3610992
   3248,   45.4953003,   23.3610992
   3249,    46.293499,   23.3610992
   3250,   47.0917015,   23.3610992
   3251,    47.889801,   23.3610992
   3252,   48.6879997,   23.3610992
   3253,   49.4861984,   23.3610992
   3254,   50.2843018,   23.3610992
   3255,   51.0825005,   23.3610992
   3256,   51.8806992,   23.3610992
   3257,   52.6787987,   23.3610992
   3258,   53.4770012,   23.3610992
   3259,   54.2751999,   23.3610992
   3260,   55.0732994,   23.3610992
   3261,   55.8714981,   23.3610992
   3262,   56.6697006,   23.3610992
   3263,   57.4678001,   23.3610992
   3264,   58.2659988,   23.3610992
   3265,   59.0642014,   23.3610992
   3266,   59.8623009,   23.3610992
   3267,   60.6604996,   23.3610992
   3268,   61.4586983,   23.3610992
   3269,   62.2568016,   23.3610992
   3270,   63.0550003,   23.3610992
   3271,   63.8530998,   23.3610992
   3272,   64.6512985,   23.3610992
   3273,    65.449501,   23.3610992
   3274,   66.2475967,   23.3610992
   3275,   67.0457993,   23.3610992
   3276,   67.8440018,   23.3610992
   3277,   68.6420975,   23.3610992
   3278,      69.4403,   23.3610992
   3279,   70.2385025,   23.3610992
   3280,   71.0365982,   23.3610992
   3281,   71.8348007,   23.3610992
   3282,   72.6330032,   23.3610992
   3283,   73.4310989,   23.3610992
   3284,   74.2293015,   23.3610992
   3285,   75.0274963,   23.3610992
   3286,   75.8255997,   23.3610992
   3287,   76.6238022,   23.3610992
   3288,   77.4219971,   23.3610992
   3289,   78.2201004,   23.3610992
   3290,   79.0183029,   23.3610992
   3291,   79.8163986,   23.3610992
   3292,   80.6146011,   23.3610992
   3293,   81.4128036,   23.3610992
   3294,   82.2108994,   23.3610992
   3295,   83.0091019,   23.3610992
   3296,   83.8072968,   23.3610992
   3297,   84.6054001,   23.3610992
   3298,   85.4036026,   23.3610992
   3299,   86.2017975,   23.3610992
   3300,          87.,   23.3610992
   3301,           0.,   24.1665993
   3302,  0.798165977,   24.1665993
   3303,   1.59633005,   24.1665993
   3304,      2.39449,   24.1665993
   3305,   3.19266009,   24.1665993
   3306,   3.99081993,   24.1665993
   3307,   4.78899002,   24.1665993
   3308,    5.5871501,   24.1665993
   3309,   6.38532019,   24.1665993
   3310,   7.18347979,   24.1665993
   3311,   7.98164988,   24.1665993
   3312,   8.77980995,   24.1665993
   3313,   9.57798004,   24.1665993
   3314,   10.3760996,   24.1665993
   3315,   11.1743002,   24.1665993
   3316,   11.9723997,   24.1665993
   3317,   12.7706003,   24.1665993
   3318,      13.5688,   24.1665993
   3319,   14.3669004,   24.1665993
   3320,   15.1651001,   24.1665993
   3321,   15.9631996,   24.1665993
   3322,   16.7614002,   24.1665993
   3323,   17.5596008,   24.1665993
   3324,   18.3577003,   24.1665993
   3325,    19.155899,   24.1665993
   3326,   19.9540997,   24.1665993
   3327,   20.7521992,   24.1665993
   3328,   21.5503998,   24.1665993
   3329,   22.3486004,   24.1665993
   3330,   23.1466999,   24.1665993
   3331,   23.9449005,   24.1665993
   3332,   24.7430992,   24.1665993
   3333,   25.5412006,   24.1665993
   3334,   26.3393993,   24.1665993
   3335,   27.1375999,   24.1665993
   3336,   27.9356995,   24.1665993
   3337,   28.7339001,   24.1665993
   3338,   29.5319996,   24.1665993
   3339,   30.3302002,   24.1665993
   3340,   31.1284008,   24.1665993
   3341,   31.9265003,   24.1665993
   3342,   32.7247009,   24.1665993
   3343,   33.5228996,   24.1665993
   3344,   34.3209991,   24.1665993
   3345,   35.1192017,   24.1665993
   3346,   35.9174004,   24.1665993
   3347,   36.7154999,   24.1665993
   3348,   37.5136986,   24.1665993
   3349,   38.3119011,   24.1665993
   3350,   39.1100006,   24.1665993
   3351,   39.9081993,   24.1665993
   3352,   40.7064018,   24.1665993
   3353,   41.5045013,   24.1665993
   3354,      42.3027,   24.1665993
   3355,   43.1008987,   24.1665993
   3356,   43.8989983,   24.1665993
   3357,   44.6972008,   24.1665993
   3358,   45.4953003,   24.1665993
   3359,    46.293499,   24.1665993
   3360,   47.0917015,   24.1665993
   3361,    47.889801,   24.1665993
   3362,   48.6879997,   24.1665993
   3363,   49.4861984,   24.1665993
   3364,   50.2843018,   24.1665993
   3365,   51.0825005,   24.1665993
   3366,   51.8806992,   24.1665993
   3367,   52.6787987,   24.1665993
   3368,   53.4770012,   24.1665993
   3369,   54.2751999,   24.1665993
   3370,   55.0732994,   24.1665993
   3371,   55.8714981,   24.1665993
   3372,   56.6697006,   24.1665993
   3373,   57.4678001,   24.1665993
   3374,   58.2659988,   24.1665993
   3375,   59.0642014,   24.1665993
   3376,   59.8623009,   24.1665993
   3377,   60.6604996,   24.1665993
   3378,   61.4586983,   24.1665993
   3379,   62.2568016,   24.1665993
   3380,   63.0550003,   24.1665993
   3381,   63.8530998,   24.1665993
   3382,   64.6512985,   24.1665993
   3383,    65.449501,   24.1665993
   3384,   66.2475967,   24.1665993
   3385,   67.0457993,   24.1665993
   3386,   67.8440018,   24.1665993
   3387,   68.6420975,   24.1665993
   3388,      69.4403,   24.1665993
   3389,   70.2385025,   24.1665993
   3390,   71.0365982,   24.1665993
   3391,   71.8348007,   24.1665993
   3392,   72.6330032,   24.1665993
   3393,   73.4310989,   24.1665993
   3394,   74.2293015,   24.1665993
   3395,   75.0274963,   24.1665993
   3396,   75.8255997,   24.1665993
   3397,   76.6238022,   24.1665993
   3398,   77.4219971,   24.1665993
   3399,   78.2201004,   24.1665993
   3400,   79.0183029,   24.1665993
   3401,   79.8163986,   24.1665993
   3402,   80.6146011,   24.1665993
   3403,   81.4128036,   24.1665993
   3404,   82.2108994,   24.1665993
   3405,   83.0091019,   24.1665993
   3406,   83.8072968,   24.1665993
   3407,   84.6054001,   24.1665993
   3408,   85.4036026,   24.1665993
   3409,   86.2017975,   24.1665993
   3410,          87.,   24.1665993
   3411,           0.,   24.9722004
   3412,  0.798165977,   24.9722004
   3413,   1.59633005,   24.9722004
   3414,      2.39449,   24.9722004
   3415,   3.19266009,   24.9722004
   3416,   3.99081993,   24.9722004
   3417,   4.78899002,   24.9722004
   3418,    5.5871501,   24.9722004
   3419,   6.38532019,   24.9722004
   3420,   7.18347979,   24.9722004
   3421,   7.98164988,   24.9722004
   3422,   8.77980995,   24.9722004
   3423,   9.57798004,   24.9722004
   3424,   10.3760996,   24.9722004
   3425,   11.1743002,   24.9722004
   3426,   11.9723997,   24.9722004
   3427,   12.7706003,   24.9722004
   3428,      13.5688,   24.9722004
   3429,   14.3669004,   24.9722004
   3430,   15.1651001,   24.9722004
   3431,   15.9631996,   24.9722004
   3432,   16.7614002,   24.9722004
   3433,   17.5596008,   24.9722004
   3434,   18.3577003,   24.9722004
   3435,    19.155899,   24.9722004
   3436,   19.9540997,   24.9722004
   3437,   20.7521992,   24.9722004
   3438,   21.5503998,   24.9722004
   3439,   22.3486004,   24.9722004
   3440,   23.1466999,   24.9722004
   3441,   23.9449005,   24.9722004
   3442,   24.7430992,   24.9722004
   3443,   25.5412006,   24.9722004
   3444,   26.3393993,   24.9722004
   3445,   27.1375999,   24.9722004
   3446,   27.9356995,   24.9722004
   3447,   28.7339001,   24.9722004
   3448,   29.5319996,   24.9722004
   3449,   30.3302002,   24.9722004
   3450,   31.1284008,   24.9722004
   3451,   31.9265003,   24.9722004
   3452,   32.7247009,   24.9722004
   3453,   33.5228996,   24.9722004
   3454,   34.3209991,   24.9722004
   3455,   35.1192017,   24.9722004
   3456,   35.9174004,   24.9722004
   3457,   36.7154999,   24.9722004
   3458,   37.5136986,   24.9722004
   3459,   38.3119011,   24.9722004
   3460,   39.1100006,   24.9722004
   3461,   39.9081993,   24.9722004
   3462,   40.7064018,   24.9722004
   3463,   41.5045013,   24.9722004
   3464,      42.3027,   24.9722004
   3465,   43.1008987,   24.9722004
   3466,   43.8989983,   24.9722004
   3467,   44.6972008,   24.9722004
   3468,   45.4953003,   24.9722004
   3469,    46.293499,   24.9722004
   3470,   47.0917015,   24.9722004
   3471,    47.889801,   24.9722004
   3472,   48.6879997,   24.9722004
   3473,   49.4861984,   24.9722004
   3474,   50.2843018,   24.9722004
   3475,   51.0825005,   24.9722004
   3476,   51.8806992,   24.9722004
   3477,   52.6787987,   24.9722004
   3478,   53.4770012,   24.9722004
   3479,   54.2751999,   24.9722004
   3480,   55.0732994,   24.9722004
   3481,   55.8714981,   24.9722004
   3482,   56.6697006,   24.9722004
   3483,   57.4678001,   24.9722004
   3484,   58.2659988,   24.9722004
   3485,   59.0642014,   24.9722004
   3486,   59.8623009,   24.9722004
   3487,   60.6604996,   24.9722004
   3488,   61.4586983,   24.9722004
   3489,   62.2568016,   24.9722004
   3490,   63.0550003,   24.9722004
   3491,   63.8530998,   24.9722004
   3492,   64.6512985,   24.9722004
   3493,    65.449501,   24.9722004
   3494,   66.2475967,   24.9722004
   3495,   67.0457993,   24.9722004
   3496,   67.8440018,   24.9722004
   3497,   68.6420975,   24.9722004
   3498,      69.4403,   24.9722004
   3499,   70.2385025,   24.9722004
   3500,   71.0365982,   24.9722004
   3501,   71.8348007,   24.9722004
   3502,   72.6330032,   24.9722004
   3503,   73.4310989,   24.9722004
   3504,   74.2293015,   24.9722004
   3505,   75.0274963,   24.9722004
   3506,   75.8255997,   24.9722004
   3507,   76.6238022,   24.9722004
   3508,   77.4219971,   24.9722004
   3509,   78.2201004,   24.9722004
   3510,   79.0183029,   24.9722004
   3511,   79.8163986,   24.9722004
   3512,   80.6146011,   24.9722004
   3513,   81.4128036,   24.9722004
   3514,   82.2108994,   24.9722004
   3515,   83.0091019,   24.9722004
   3516,   83.8072968,   24.9722004
   3517,   84.6054001,   24.9722004
   3518,   85.4036026,   24.9722004
   3519,   86.2017975,   24.9722004
   3520,          87.,   24.9722004
   3521,           0.,   25.7777004
   3522,  0.798165977,   25.7777004
   3523,   1.59633005,   25.7777004
   3524,      2.39449,   25.7777004
   3525,   3.19266009,   25.7777004
   3526,   3.99081993,   25.7777004
   3527,   4.78899002,   25.7777004
   3528,    5.5871501,   25.7777004
   3529,   6.38532019,   25.7777004
   3530,   7.18347979,   25.7777004
   3531,   7.98164988,   25.7777004
   3532,   8.77980995,   25.7777004
   3533,   9.57798004,   25.7777004
   3534,   10.3760996,   25.7777004
   3535,   11.1743002,   25.7777004
   3536,   11.9723997,   25.7777004
   3537,   12.7706003,   25.7777004
   3538,      13.5688,   25.7777004
   3539,   14.3669004,   25.7777004
   3540,   15.1651001,   25.7777004
   3541,   15.9631996,   25.7777004
   3542,   16.7614002,   25.7777004
   3543,   17.5596008,   25.7777004
   3544,   18.3577003,   25.7777004
   3545,    19.155899,   25.7777004
   3546,   19.9540997,   25.7777004
   3547,   20.7521992,   25.7777004
   3548,   21.5503998,   25.7777004
   3549,   22.3486004,   25.7777004
   3550,   23.1466999,   25.7777004
   3551,   23.9449005,   25.7777004
   3552,   24.7430992,   25.7777004
   3553,   25.5412006,   25.7777004
   3554,   26.3393993,   25.7777004
   3555,   27.1375999,   25.7777004
   3556,   27.9356995,   25.7777004
   3557,   28.7339001,   25.7777004
   3558,   29.5319996,   25.7777004
   3559,   30.3302002,   25.7777004
   3560,   31.1284008,   25.7777004
   3561,   31.9265003,   25.7777004
   3562,   32.7247009,   25.7777004
   3563,   33.5228996,   25.7777004
   3564,   34.3209991,   25.7777004
   3565,   35.1192017,   25.7777004
   3566,   35.9174004,   25.7777004
   3567,   36.7154999,   25.7777004
   3568,   37.5136986,   25.7777004
   3569,   38.3119011,   25.7777004
   3570,   39.1100006,   25.7777004
   3571,   39.9081993,   25.7777004
   3572,   40.7064018,   25.7777004
   3573,   41.5045013,   25.7777004
   3574,      42.3027,   25.7777004
   3575,   43.1008987,   25.7777004
   3576,   43.8989983,   25.7777004
   3577,   44.6972008,   25.7777004
   3578,   45.4953003,   25.7777004
   3579,    46.293499,   25.7777004
   3580,   47.0917015,   25.7777004
   3581,    47.889801,   25.7777004
   3582,   48.6879997,   25.7777004
   3583,   49.4861984,   25.7777004
   3584,   50.2843018,   25.7777004
   3585,   51.0825005,   25.7777004
   3586,   51.8806992,   25.7777004
   3587,   52.6787987,   25.7777004
   3588,   53.4770012,   25.7777004
   3589,   54.2751999,   25.7777004
   3590,   55.0732994,   25.7777004
   3591,   55.8714981,   25.7777004
   3592,   56.6697006,   25.7777004
   3593,   57.4678001,   25.7777004
   3594,   58.2659988,   25.7777004
   3595,   59.0642014,   25.7777004
   3596,   59.8623009,   25.7777004
   3597,   60.6604996,   25.7777004
   3598,   61.4586983,   25.7777004
   3599,   62.2568016,   25.7777004
   3600,   63.0550003,   25.7777004
   3601,   63.8530998,   25.7777004
   3602,   64.6512985,   25.7777004
   3603,    65.449501,   25.7777004
   3604,   66.2475967,   25.7777004
   3605,   67.0457993,   25.7777004
   3606,   67.8440018,   25.7777004
   3607,   68.6420975,   25.7777004
   3608,      69.4403,   25.7777004
   3609,   70.2385025,   25.7777004
   3610,   71.0365982,   25.7777004
   3611,   71.8348007,   25.7777004
   3612,   72.6330032,   25.7777004
   3613,   73.4310989,   25.7777004
   3614,   74.2293015,   25.7777004
   3615,   75.0274963,   25.7777004
   3616,   75.8255997,   25.7777004
   3617,   76.6238022,   25.7777004
   3618,   77.4219971,   25.7777004
   3619,   78.2201004,   25.7777004
   3620,   79.0183029,   25.7777004
   3621,   79.8163986,   25.7777004
   3622,   80.6146011,   25.7777004
   3623,   81.4128036,   25.7777004
   3624,   82.2108994,   25.7777004
   3625,   83.0091019,   25.7777004
   3626,   83.8072968,   25.7777004
   3627,   84.6054001,   25.7777004
   3628,   85.4036026,   25.7777004
   3629,   86.2017975,   25.7777004
   3630,          87.,   25.7777004
   3631,           0.,   26.5832996
   3632,  0.798165977,   26.5832996
   3633,   1.59633005,   26.5832996
   3634,      2.39449,   26.5832996
   3635,   3.19266009,   26.5832996
   3636,   3.99081993,   26.5832996
   3637,   4.78899002,   26.5832996
   3638,    5.5871501,   26.5832996
   3639,   6.38532019,   26.5832996
   3640,   7.18347979,   26.5832996
   3641,   7.98164988,   26.5832996
   3642,   8.77980995,   26.5832996
   3643,   9.57798004,   26.5832996
   3644,   10.3760996,   26.5832996
   3645,   11.1743002,   26.5832996
   3646,   11.9723997,   26.5832996
   3647,   12.7706003,   26.5832996
   3648,      13.5688,   26.5832996
   3649,   14.3669004,   26.5832996
   3650,   15.1651001,   26.5832996
   3651,   15.9631996,   26.5832996
   3652,   16.7614002,   26.5832996
   3653,   17.5596008,   26.5832996
   3654,   18.3577003,   26.5832996
   3655,    19.155899,   26.5832996
   3656,   19.9540997,   26.5832996
   3657,   20.7521992,   26.5832996
   3658,   21.5503998,   26.5832996
   3659,   22.3486004,   26.5832996
   3660,   23.1466999,   26.5832996
   3661,   23.9449005,   26.5832996
   3662,   24.7430992,   26.5832996
   3663,   25.5412006,   26.5832996
   3664,   26.3393993,   26.5832996
   3665,   27.1375999,   26.5832996
   3666,   27.9356995,   26.5832996
   3667,   28.7339001,   26.5832996
   3668,   29.5319996,   26.5832996
   3669,   30.3302002,   26.5832996
   3670,   31.1284008,   26.5832996
   3671,   31.9265003,   26.5832996
   3672,   32.7247009,   26.5832996
   3673,   33.5228996,   26.5832996
   3674,   34.3209991,   26.5832996
   3675,   35.1192017,   26.5832996
   3676,   35.9174004,   26.5832996
   3677,   36.7154999,   26.5832996
   3678,   37.5136986,   26.5832996
   3679,   38.3119011,   26.5832996
   3680,   39.1100006,   26.5832996
   3681,   39.9081993,   26.5832996
   3682,   40.7064018,   26.5832996
   3683,   41.5045013,   26.5832996
   3684,      42.3027,   26.5832996
   3685,   43.1008987,   26.5832996
   3686,   43.8989983,   26.5832996
   3687,   44.6972008,   26.5832996
   3688,   45.4953003,   26.5832996
   3689,    46.293499,   26.5832996
   3690,   47.0917015,   26.5832996
   3691,    47.889801,   26.5832996
   3692,   48.6879997,   26.5832996
   3693,   49.4861984,   26.5832996
   3694,   50.2843018,   26.5832996
   3695,   51.0825005,   26.5832996
   3696,   51.8806992,   26.5832996
   3697,   52.6787987,   26.5832996
   3698,   53.4770012,   26.5832996
   3699,   54.2751999,   26.5832996
   3700,   55.0732994,   26.5832996
   3701,   55.8714981,   26.5832996
   3702,   56.6697006,   26.5832996
   3703,   57.4678001,   26.5832996
   3704,   58.2659988,   26.5832996
   3705,   59.0642014,   26.5832996
   3706,   59.8623009,   26.5832996
   3707,   60.6604996,   26.5832996
   3708,   61.4586983,   26.5832996
   3709,   62.2568016,   26.5832996
   3710,   63.0550003,   26.5832996
   3711,   63.8530998,   26.5832996
   3712,   64.6512985,   26.5832996
   3713,    65.449501,   26.5832996
   3714,   66.2475967,   26.5832996
   3715,   67.0457993,   26.5832996
   3716,   67.8440018,   26.5832996
   3717,   68.6420975,   26.5832996
   3718,      69.4403,   26.5832996
   3719,   70.2385025,   26.5832996
   3720,   71.0365982,   26.5832996
   3721,   71.8348007,   26.5832996
   3722,   72.6330032,   26.5832996
   3723,   73.4310989,   26.5832996
   3724,   74.2293015,   26.5832996
   3725,   75.0274963,   26.5832996
   3726,   75.8255997,   26.5832996
   3727,   76.6238022,   26.5832996
   3728,   77.4219971,   26.5832996
   3729,   78.2201004,   26.5832996
   3730,   79.0183029,   26.5832996
   3731,   79.8163986,   26.5832996
   3732,   80.6146011,   26.5832996
   3733,   81.4128036,   26.5832996
   3734,   82.2108994,   26.5832996
   3735,   83.0091019,   26.5832996
   3736,   83.8072968,   26.5832996
   3737,   84.6054001,   26.5832996
   3738,   85.4036026,   26.5832996
   3739,   86.2017975,   26.5832996
   3740,          87.,   26.5832996
   3741,           0.,   27.3887997
   3742,  0.798165977,   27.3887997
   3743,   1.59633005,   27.3887997
   3744,      2.39449,   27.3887997
   3745,   3.19266009,   27.3887997
   3746,   3.99081993,   27.3887997
   3747,   4.78899002,   27.3887997
   3748,    5.5871501,   27.3887997
   3749,   6.38532019,   27.3887997
   3750,   7.18347979,   27.3887997
   3751,   7.98164988,   27.3887997
   3752,   8.77980995,   27.3887997
   3753,   9.57798004,   27.3887997
   3754,   10.3760996,   27.3887997
   3755,   11.1743002,   27.3887997
   3756,   11.9723997,   27.3887997
   3757,   12.7706003,   27.3887997
   3758,      13.5688,   27.3887997
   3759,   14.3669004,   27.3887997
   3760,   15.1651001,   27.3887997
   3761,   15.9631996,   27.3887997
   3762,   16.7614002,   27.3887997
   3763,   17.5596008,   27.3887997
   3764,   18.3577003,   27.3887997
   3765,    19.155899,   27.3887997
   3766,   19.9540997,   27.3887997
   3767,   20.7521992,   27.3887997
   3768,   21.5503998,   27.3887997
   3769,   22.3486004,   27.3887997
   3770,   23.1466999,   27.3887997
   3771,   23.9449005,   27.3887997
   3772,   24.7430992,   27.3887997
   3773,   25.5412006,   27.3887997
   3774,   26.3393993,   27.3887997
   3775,   27.1375999,   27.3887997
   3776,   27.9356995,   27.3887997
   3777,   28.7339001,   27.3887997
   3778,   29.5319996,   27.3887997
   3779,   30.3302002,   27.3887997
   3780,   31.1284008,   27.3887997
   3781,   31.9265003,   27.3887997
   3782,   32.7247009,   27.3887997
   3783,   33.5228996,   27.3887997
   3784,   34.3209991,   27.3887997
   3785,   35.1192017,   27.3887997
   3786,   35.9174004,   27.3887997
   3787,   36.7154999,   27.3887997
   3788,   37.5136986,   27.3887997
   3789,   38.3119011,   27.3887997
   3790,   39.1100006,   27.3887997
   3791,   39.9081993,   27.3887997
   3792,   40.7064018,   27.3887997
   3793,   41.5045013,   27.3887997
   3794,      42.3027,   27.3887997
   3795,   43.1008987,   27.3887997
   3796,   43.8989983,   27.3887997
   3797,   44.6972008,   27.3887997
   3798,   45.4953003,   27.3887997
   3799,    46.293499,   27.3887997
   3800,   47.0917015,   27.3887997
   3801,    47.889801,   27.3887997
   3802,   48.6879997,   27.3887997
   3803,   49.4861984,   27.3887997
   3804,   50.2843018,   27.3887997
   3805,   51.0825005,   27.3887997
   3806,   51.8806992,   27.3887997
   3807,   52.6787987,   27.3887997
   3808,   53.4770012,   27.3887997
   3809,   54.2751999,   27.3887997
   3810,   55.0732994,   27.3887997
   3811,   55.8714981,   27.3887997
   3812,   56.6697006,   27.3887997
   3813,   57.4678001,   27.3887997
   3814,   58.2659988,   27.3887997
   3815,   59.0642014,   27.3887997
   3816,   59.8623009,   27.3887997
   3817,   60.6604996,   27.3887997
   3818,   61.4586983,   27.3887997
   3819,   62.2568016,   27.3887997
   3820,   63.0550003,   27.3887997
   3821,   63.8530998,   27.3887997
   3822,   64.6512985,   27.3887997
   3823,    65.449501,   27.3887997
   3824,   66.2475967,   27.3887997
   3825,   67.0457993,   27.3887997
   3826,   67.8440018,   27.3887997
   3827,   68.6420975,   27.3887997
   3828,      69.4403,   27.3887997
   3829,   70.2385025,   27.3887997
   3830,   71.0365982,   27.3887997
   3831,   71.8348007,   27.3887997
   3832,   72.6330032,   27.3887997
   3833,   73.4310989,   27.3887997
   3834,   74.2293015,   27.3887997
   3835,   75.0274963,   27.3887997
   3836,   75.8255997,   27.3887997
   3837,   76.6238022,   27.3887997
   3838,   77.4219971,   27.3887997
   3839,   78.2201004,   27.3887997
   3840,   79.0183029,   27.3887997
   3841,   79.8163986,   27.3887997
   3842,   80.6146011,   27.3887997
   3843,   81.4128036,   27.3887997
   3844,   82.2108994,   27.3887997
   3845,   83.0091019,   27.3887997
   3846,   83.8072968,   27.3887997
   3847,   84.6054001,   27.3887997
   3848,   85.4036026,   27.3887997
   3849,   86.2017975,   27.3887997
   3850,          87.,   27.3887997
   3851,           0.,   28.1944008
   3852,  0.798165977,   28.1944008
   3853,   1.59633005,   28.1944008
   3854,      2.39449,   28.1944008
   3855,   3.19266009,   28.1944008
   3856,   3.99081993,   28.1944008
   3857,   4.78899002,   28.1944008
   3858,    5.5871501,   28.1944008
   3859,   6.38532019,   28.1944008
   3860,   7.18347979,   28.1944008
   3861,   7.98164988,   28.1944008
   3862,   8.77980995,   28.1944008
   3863,   9.57798004,   28.1944008
   3864,   10.3760996,   28.1944008
   3865,   11.1743002,   28.1944008
   3866,   11.9723997,   28.1944008
   3867,   12.7706003,   28.1944008
   3868,      13.5688,   28.1944008
   3869,   14.3669004,   28.1944008
   3870,   15.1651001,   28.1944008
   3871,   15.9631996,   28.1944008
   3872,   16.7614002,   28.1944008
   3873,   17.5596008,   28.1944008
   3874,   18.3577003,   28.1944008
   3875,    19.155899,   28.1944008
   3876,   19.9540997,   28.1944008
   3877,   20.7521992,   28.1944008
   3878,   21.5503998,   28.1944008
   3879,   22.3486004,   28.1944008
   3880,   23.1466999,   28.1944008
   3881,   23.9449005,   28.1944008
   3882,   24.7430992,   28.1944008
   3883,   25.5412006,   28.1944008
   3884,   26.3393993,   28.1944008
   3885,   27.1375999,   28.1944008
   3886,   27.9356995,   28.1944008
   3887,   28.7339001,   28.1944008
   3888,   29.5319996,   28.1944008
   3889,   30.3302002,   28.1944008
   3890,   31.1284008,   28.1944008
   3891,   31.9265003,   28.1944008
   3892,   32.7247009,   28.1944008
   3893,   33.5228996,   28.1944008
   3894,   34.3209991,   28.1944008
   3895,   35.1192017,   28.1944008
   3896,   35.9174004,   28.1944008
   3897,   36.7154999,   28.1944008
   3898,   37.5136986,   28.1944008
   3899,   38.3119011,   28.1944008
   3900,   39.1100006,   28.1944008
   3901,   39.9081993,   28.1944008
   3902,   40.7064018,   28.1944008
   3903,   41.5045013,   28.1944008
   3904,      42.3027,   28.1944008
   3905,   43.1008987,   28.1944008
   3906,   43.8989983,   28.1944008
   3907,   44.6972008,   28.1944008
   3908,   45.4953003,   28.1944008
   3909,    46.293499,   28.1944008
   3910,   47.0917015,   28.1944008
   3911,    47.889801,   28.1944008
   3912,   48.6879997,   28.1944008
   3913,   49.4861984,   28.1944008
   3914,   50.2843018,   28.1944008
   3915,   51.0825005,   28.1944008
   3916,   51.8806992,   28.1944008
   3917,   52.6787987,   28.1944008
   3918,   53.4770012,   28.1944008
   3919,   54.2751999,   28.1944008
   3920,   55.0732994,   28.1944008
   3921,   55.8714981,   28.1944008
   3922,   56.6697006,   28.1944008
   3923,   57.4678001,   28.1944008
   3924,   58.2659988,   28.1944008
   3925,   59.0642014,   28.1944008
   3926,   59.8623009,   28.1944008
   3927,   60.6604996,   28.1944008
   3928,   61.4586983,   28.1944008
   3929,   62.2568016,   28.1944008
   3930,   63.0550003,   28.1944008
   3931,   63.8530998,   28.1944008
   3932,   64.6512985,   28.1944008
   3933,    65.449501,   28.1944008
   3934,   66.2475967,   28.1944008
   3935,   67.0457993,   28.1944008
   3936,   67.8440018,   28.1944008
   3937,   68.6420975,   28.1944008
   3938,      69.4403,   28.1944008
   3939,   70.2385025,   28.1944008
   3940,   71.0365982,   28.1944008
   3941,   71.8348007,   28.1944008
   3942,   72.6330032,   28.1944008
   3943,   73.4310989,   28.1944008
   3944,   74.2293015,   28.1944008
   3945,   75.0274963,   28.1944008
   3946,   75.8255997,   28.1944008
   3947,   76.6238022,   28.1944008
   3948,   77.4219971,   28.1944008
   3949,   78.2201004,   28.1944008
   3950,   79.0183029,   28.1944008
   3951,   79.8163986,   28.1944008
   3952,   80.6146011,   28.1944008
   3953,   81.4128036,   28.1944008
   3954,   82.2108994,   28.1944008
   3955,   83.0091019,   28.1944008
   3956,   83.8072968,   28.1944008
   3957,   84.6054001,   28.1944008
   3958,   85.4036026,   28.1944008
   3959,   86.2017975,   28.1944008
   3960,          87.,   28.1944008
   3961,           0.,          29.
   3962,  0.798165977,          29.
   3963,   1.59633005,          29.
   3964,      2.39449,          29.
   3965,   3.19266009,          29.
   3966,   3.99081993,          29.
   3967,   4.78899002,          29.
   3968,    5.5871501,          29.
   3969,   6.38532019,          29.
   3970,   7.18347979,          29.
   3971,   7.98164988,          29.
   3972,   8.77980995,          29.
   3973,   9.57798004,          29.
   3974,   10.3760996,          29.
   3975,   11.1743002,          29.
   3976,   11.9723997,          29.
   3977,   12.7706003,          29.
   3978,      13.5688,          29.
   3979,   14.3669004,          29.
   3980,   15.1651001,          29.
   3981,   15.9631996,          29.
   3982,   16.7614002,          29.
   3983,   17.5596008,          29.
   3984,   18.3577003,          29.
   3985,    19.155899,          29.
   3986,   19.9540997,          29.
   3987,   20.7521992,          29.
   3988,   21.5503998,          29.
   3989,   22.3486004,          29.
   3990,   23.1466999,          29.
   3991,   23.9449005,          29.
   3992,   24.7430992,          29.
   3993,   25.5412006,          29.
   3994,   26.3393993,          29.
   3995,   27.1375999,          29.
   3996,   27.9356995,          29.
   3997,   28.7339001,          29.
   3998,   29.5319996,          29.
   3999,   30.3302002,          29.
   4000,   31.1284008,          29.
   4001,   31.9265003,          29.
   4002,   32.7247009,          29.
   4003,   33.5228996,          29.
   4004,   34.3209991,          29.
   4005,   35.1192017,          29.
   4006,   35.9174004,          29.
   4007,   36.7154999,          29.
   4008,   37.5136986,          29.
   4009,   38.3119011,          29.
   4010,   39.1100006,          29.
   4011,   39.9081993,          29.
   4012,   40.7064018,          29.
   4013,   41.5045013,          29.
   4014,      42.3027,          29.
   4015,   43.1008987,          29.
   4016,   43.8989983,          29.
   4017,   44.6972008,          29.
   4018,   45.4953003,          29.
   4019,    46.293499,          29.
   4020,   47.0917015,          29.
   4021,    47.889801,          29.
   4022,   48.6879997,          29.
   4023,   49.4861984,          29.
   4024,   50.2843018,          29.
   4025,   51.0825005,          29.
   4026,   51.8806992,          29.
   4027,   52.6787987,          29.
   4028,   53.4770012,          29.
   4029,   54.2751999,          29.
   4030,   55.0732994,          29.
   4031,   55.8714981,          29.
   4032,   56.6697006,          29.
   4033,   57.4678001,          29.
   4034,   58.2659988,          29.
   4035,   59.0642014,          29.
   4036,   59.8623009,          29.
   4037,   60.6604996,          29.
   4038,   61.4586983,          29.
   4039,   62.2568016,          29.
   4040,   63.0550003,          29.
   4041,   63.8530998,          29.
   4042,   64.6512985,          29.
   4043,    65.449501,          29.
   4044,   66.2475967,          29.
   4045,   67.0457993,          29.
   4046,   67.8440018,          29.
   4047,   68.6420975,          29.
   4048,      69.4403,          29.
   4049,   70.2385025,          29.
   4050,   71.0365982,          29.
   4051,   71.8348007,          29.
   4052,   72.6330032,          29.
   4053,   73.4310989,          29.
   4054,   74.2293015,          29.
   4055,   75.0274963,          29.
   4056,   75.8255997,          29.
   4057,   76.6238022,          29.
   4058,   77.4219971,          29.
   4059,   78.2201004,          29.
   4060,   79.0183029,          29.
   4061,   79.8163986,          29.
   4062,   80.6146011,          29.
   4063,   81.4128036,          29.
   4064,   82.2108994,          29.
   4065,   83.0091019,          29.
   4066,   83.8072968,          29.
   4067,   84.6054001,          29.
   4068,   85.4036026,          29.
   4069,   86.2017975,          29.
   4070,          87.,          29.
*Element, type=CPE4
   1,    1,    2,  112,  111
   2,    2,    3,  113,  112
   3,    3,    4,  114,  113
   4,    4,    5,  115,  114
   5,    5,    6,  116,  115
   6,    6,    7,  117,  116
   7,    7,    8,  118,  117
   8,    8,    9,  119,  118
   9,    9,   10,  120,  119
  10,   10,   11,  121,  120
  11,   11,   12,  122,  121
  12,   12,   13,  123,  122
  13,   13,   14,  124,  123
  14,   14,   15,  125,  124
  15,   15,   16,  126,  125
  16,   16,   17,  127,  126
  17,   17,   18,  128,  127
  18,   18,   19,  129,  128
  19,   19,   20,  130,  129
  20,   20,   21,  131,  130
  21,   21,   22,  132,  131
  22,   22,   23,  133,  132
  23,   23,   24,  134,  133
  24,   24,   25,  135,  134
  25,   25,   26,  136,  135
  26,   26,   27,  137,  136
  27,   27,   28,  138,  137
  28,   28,   29,  139,  138
  29,   29,   30,  140,  139
  30,   30,   31,  141,  140
  31,   31,   32,  142,  141
  32,   32,   33,  143,  142
  33,   33,   34,  144,  143
  34,   34,   35,  145,  144
  35,   35,   36,  146,  145
  36,   36,   37,  147,  146
  37,   37,   38,  148,  147
  38,   38,   39,  149,  148
  39,   39,   40,  150,  149
  40,   40,   41,  151,  150
  41,   41,   42,  152,  151
  42,   42,   43,  153,  152
  43,   43,   44,  154,  153
  44,   44,   45,  155,  154
  45,   45,   46,  156,  155
  46,   46,   47,  157,  156
  47,   47,   48,  158,  157
  48,   48,   49,  159,  158
  49,   49,   50,  160,  159
  50,   50,   51,  161,  160
  51,   51,   52,  162,  161
  52,   52,   53,  163,  162
  53,   53,   54,  164,  163
  54,   54,   55,  165,  164
  55,   55,   56,  166,  165
  56,   56,   57,  167,  166
  57,   57,   58,  168,  167
  58,   58,   59,  169,  168
  59,   59,   60,  170,  169
  60,   60,   61,  171,  170
  61,   61,   62,  172,  171
  62,   62,   63,  173,  172
  63,   63,   64,  174,  173
  64,   64,   65,  175,  174
  65,   65,   66,  176,  175
  66,   66,   67,  177,  176
  67,   67,   68,  178,  177
  68,   68,   69,  179,  178
  69,   69,   70,  180,  179
  70,   70,   71,  181,  180
  71,   71,   72,  182,  181
  72,   72,   73,  183,  182
  73,   73,   74,  184,  183
  74,   74,   75,  185,  184
  75,   75,   76,  186,  185
  76,   76,   77,  187,  186
  77,   77,   78,  188,  187
  78,   78,   79,  189,  188
  79,   79,   80,  190,  189
  80,   80,   81,  191,  190
  81,   81,   82,  192,  191
  82,   82,   83,  193,  192
  83,   83,   84,  194,  193
  84,   84,   85,  195,  194
  85,   85,   86,  196,  195
  86,   86,   87,  197,  196
  87,   87,   88,  198,  197
  88,   88,   89,  199,  198
  89,   89,   90,  200,  199
  90,   90,   91,  201,  200
  91,   91,   92,  202,  201
  92,   92,   93,  203,  202
  93,   93,   94,  204,  203
  94,   94,   95,  205,  204
  95,   95,   96,  206,  205
  96,   96,   97,  207,  206
  97,   97,   98,  208,  207
  98,   98,   99,  209,  208
  99,   99,  100,  210,  209
 100,  100,  101,  211,  210
 101,  101,  102,  212,  211
 102,  102,  103,  213,  212
 103,  103,  104,  214,  213
 104,  104,  105,  215,  214
 105,  105,  106,  216,  215
 106,  106,  107,  217,  216
 107,  107,  108,  218,  217
 108,  108,  109,  219,  218
 109,  109,  110,  220,  219
 110,  111,  112,  222,  221
 111,  112,  113,  223,  222
 112,  113,  114,  224,  223
 113,  114,  115,  225,  224
 114,  115,  116,  226,  225
 115,  116,  117,  227,  226
 116,  117,  118,  228,  227
 117,  118,  119,  229,  228
 118,  119,  120,  230,  229
 119,  120,  121,  231,  230
 120,  121,  122,  232,  231
 121,  122,  123,  233,  232
 122,  123,  124,  234,  233
 123,  124,  125,  235,  234
 124,  125,  126,  236,  235
 125,  126,  127,  237,  236
 126,  127,  128,  238,  237
 127,  128,  129,  239,  238
 128,  129,  130,  240,  239
 129,  130,  131,  241,  240
 130,  131,  132,  242,  241
 131,  132,  133,  243,  242
 132,  133,  134,  244,  243
 133,  134,  135,  245,  244
 134,  135,  136,  246,  245
 135,  136,  137,  247,  246
 136,  137,  138,  248,  247
 137,  138,  139,  249,  248
 138,  139,  140,  250,  249
 139,  140,  141,  251,  250
 140,  141,  142,  252,  251
 141,  142,  143,  253,  252
 142,  143,  144,  254,  253
 143,  144,  145,  255,  254
 144,  145,  146,  256,  255
 145,  146,  147,  257,  256
 146,  147,  148,  258,  257
 147,  148,  149,  259,  258
 148,  149,  150,  260,  259
 149,  150,  151,  261,  260
 150,  151,  152,  262,  261
 151,  152,  153,  263,  262
 152,  153,  154,  264,  263
 153,  154,  155,  265,  264
 154,  155,  156,  266,  265
 155,  156,  157,  267,  266
 156,  157,  158,  268,  267
 157,  158,  159,  269,  268
 158,  159,  160,  270,  269
 159,  160,  161,  271,  270
 160,  161,  162,  272,  271
 161,  162,  163,  273,  272
 162,  163,  164,  274,  273
 163,  164,  165,  275,  274
 164,  165,  166,  276,  275
 165,  166,  167,  277,  276
 166,  167,  168,  278,  277
 167,  168,  169,  279,  278
 168,  169,  170,  280,  279
 169,  170,  171,  281,  280
 170,  171,  172,  282,  281
 171,  172,  173,  283,  282
 172,  173,  174,  284,  283
 173,  174,  175,  285,  284
 174,  175,  176,  286,  285
 175,  176,  177,  287,  286
 176,  177,  178,  288,  287
 177,  178,  179,  289,  288
 178,  179,  180,  290,  289
 179,  180,  181,  291,  290
 180,  181,  182,  292,  291
 181,  182,  183,  293,  292
 182,  183,  184,  294,  293
 183,  184,  185,  295,  294
 184,  185,  186,  296,  295
 185,  186,  187,  297,  296
 186,  187,  188,  298,  297
 187,  188,  189,  299,  298
 188,  189,  190,  300,  299
 189,  190,  191,  301,  300
 190,  191,  192,  302,  301
 191,  192,  193,  303,  302
 192,  193,  194,  304,  303
 193,  194,  195,  305,  304
 194,  195,  196,  306,  305
 195,  196,  197,  307,  306
 196,  197,  198,  308,  307
 197,  198,  199,  309,  308
 198,  199,  200,  310,  309
 199,  200,  201,  311,  310
 200,  201,  202,  312,  311
 201,  202,  203,  313,  312
 202,  203,  204,  314,  313
 203,  204,  205,  315,  314
 204,  205,  206,  316,  315
 205,  206,  207,  317,  316
 206,  207,  208,  318,  317
 207,  208,  209,  319,  318
 208,  209,  210,  320,  319
 209,  210,  211,  321,  320
 210,  211,  212,  322,  321
 211,  212,  213,  323,  322
 212,  213,  214,  324,  323
 213,  214,  215,  325,  324
 214,  215,  216,  326,  325
 215,  216,  217,  327,  326
 216,  217,  218,  328,  327
 217,  218,  219,  329,  328
 218,  219,  220,  330,  329
 219,  221,  222,  332,  331
 220,  222,  223,  333,  332
 221,  223,  224,  334,  333
 222,  224,  225,  335,  334
 223,  225,  226,  336,  335
 224,  226,  227,  337,  336
 225,  227,  228,  338,  337
 226,  228,  229,  339,  338
 227,  229,  230,  340,  339
 228,  230,  231,  341,  340
 229,  231,  232,  342,  341
 230,  232,  233,  343,  342
 231,  233,  234,  344,  343
 232,  234,  235,  345,  344
 233,  235,  236,  346,  345
 234,  236,  237,  347,  346
 235,  237,  238,  348,  347
 236,  238,  239,  349,  348
 237,  239,  240,  350,  349
 238,  240,  241,  351,  350
 239,  241,  242,  352,  351
 240,  242,  243,  353,  352
 241,  243,  244,  354,  353
 242,  244,  245,  355,  354
 243,  245,  246,  356,  355
 244,  246,  247,  357,  356
 245,  247,  248,  358,  357
 246,  248,  249,  359,  358
 247,  249,  250,  360,  359
 248,  250,  251,  361,  360
 249,  251,  252,  362,  361
 250,  252,  253,  363,  362
 251,  253,  254,  364,  363
 252,  254,  255,  365,  364
 253,  255,  256,  366,  365
 254,  256,  257,  367,  366
 255,  257,  258,  368,  367
 256,  258,  259,  369,  368
 257,  259,  260,  370,  369
 258,  260,  261,  371,  370
 259,  261,  262,  372,  371
 260,  262,  263,  373,  372
 261,  263,  264,  374,  373
 262,  264,  265,  375,  374
 263,  265,  266,  376,  375
 264,  266,  267,  377,  376
 265,  267,  268,  378,  377
 266,  268,  269,  379,  378
 267,  269,  270,  380,  379
 268,  270,  271,  381,  380
 269,  271,  272,  382,  381
 270,  272,  273,  383,  382
 271,  273,  274,  384,  383
 272,  274,  275,  385,  384
 273,  275,  276,  386,  385
 274,  276,  277,  387,  386
 275,  277,  278,  388,  387
 276,  278,  279,  389,  388
 277,  279,  280,  390,  389
 278,  280,  281,  391,  390
 279,  281,  282,  392,  391
 280,  282,  283,  393,  392
 281,  283,  284,  394,  393
 282,  284,  285,  395,  394
 283,  285,  286,  396,  395
 284,  286,  287,  397,  396
 285,  287,  288,  398,  397
 286,  288,  289,  399,  398
 287,  289,  290,  400,  399
 288,  290,  291,  401,  400
 289,  291,  292,  402,  401
 290,  292,  293,  403,  402
 291,  293,  294,  404,  403
 292,  294,  295,  405,  404
 293,  295,  296,  406,  405
 294,  296,  297,  407,  406
 295,  297,  298,  408,  407
 296,  298,  299,  409,  408
 297,  299,  300,  410,  409
 298,  300,  301,  411,  410
 299,  301,  302,  412,  411
 300,  302,  303,  413,  412
 301,  303,  304,  414,  413
 302,  304,  305,  415,  414
 303,  305,  306,  416,  415
 304,  306,  307,  417,  416
 305,  307,  308,  418,  417
 306,  308,  309,  419,  418
 307,  309,  310,  420,  419
 308,  310,  311,  421,  420
 309,  311,  312,  422,  421
 310,  312,  313,  423,  422
 311,  313,  314,  424,  423
 312,  314,  315,  425,  424
 313,  315,  316,  426,  425
 314,  316,  317,  427,  426
 315,  317,  318,  428,  427
 316,  318,  319,  429,  428
 317,  319,  320,  430,  429
 318,  320,  321,  431,  430
 319,  321,  322,  432,  431
 320,  322,  323,  433,  432
 321,  323,  324,  434,  433
 322,  324,  325,  435,  434
 323,  325,  326,  436,  435
 324,  326,  327,  437,  436
 325,  327,  328,  438,  437
 326,  328,  329,  439,  438
 327,  329,  330,  440,  439
 328,  331,  332,  442,  441
 329,  332,  333,  443,  442
 330,  333,  334,  444,  443
 331,  334,  335,  445,  444
 332,  335,  336,  446,  445
 333,  336,  337,  447,  446
 334,  337,  338,  448,  447
 335,  338,  339,  449,  448
 336,  339,  340,  450,  449
 337,  340,  341,  451,  450
 338,  341,  342,  452,  451
 339,  342,  343,  453,  452
 340,  343,  344,  454,  453
 341,  344,  345,  455,  454
 342,  345,  346,  456,  455
 343,  346,  347,  457,  456
 344,  347,  348,  458,  457
 345,  348,  349,  459,  458
 346,  349,  350,  460,  459
 347,  350,  351,  461,  460
 348,  351,  352,  462,  461
 349,  352,  353,  463,  462
 350,  353,  354,  464,  463
 351,  354,  355,  465,  464
 352,  355,  356,  466,  465
 353,  356,  357,  467,  466
 354,  357,  358,  468,  467
 355,  358,  359,  469,  468
 356,  359,  360,  470,  469
 357,  360,  361,  471,  470
 358,  361,  362,  472,  471
 359,  362,  363,  473,  472
 360,  363,  364,  474,  473
 361,  364,  365,  475,  474
 362,  365,  366,  476,  475
 363,  366,  367,  477,  476
 364,  367,  368,  478,  477
 365,  368,  369,  479,  478
 366,  369,  370,  480,  479
 367,  370,  371,  481,  480
 368,  371,  372,  482,  481
 369,  372,  373,  483,  482
 370,  373,  374,  484,  483
 371,  374,  375,  485,  484
 372,  375,  376,  486,  485
 373,  376,  377,  487,  486
 374,  377,  378,  488,  487
 375,  378,  379,  489,  488
 376,  379,  380,  490,  489
 377,  380,  381,  491,  490
 378,  381,  382,  492,  491
 379,  382,  383,  493,  492
 380,  383,  384,  494,  493
 381,  384,  385,  495,  494
 382,  385,  386,  496,  495
 383,  386,  387,  497,  496
 384,  387,  388,  498,  497
 385,  388,  389,  499,  498
 386,  389,  390,  500,  499
 387,  390,  391,  501,  500
 388,  391,  392,  502,  501
 389,  392,  393,  503,  502
 390,  393,  394,  504,  503
 391,  394,  395,  505,  504
 392,  395,  396,  506,  505
 393,  396,  397,  507,  506
 394,  397,  398,  508,  507
 395,  398,  399,  509,  508
 396,  399,  400,  510,  509
 397,  400,  401,  511,  510
 398,  401,  402,  512,  511
 399,  402,  403,  513,  512
 400,  403,  404,  514,  513
 401,  404,  405,  515,  514
 402,  405,  406,  516,  515
 403,  406,  407,  517,  516
 404,  407,  408,  518,  517
 405,  408,  409,  519,  518
 406,  409,  410,  520,  519
 407,  410,  411,  521,  520
 408,  411,  412,  522,  521
 409,  412,  413,  523,  522
 410,  413,  414,  524,  523
 411,  414,  415,  525,  524
 412,  415,  416,  526,  525
 413,  416,  417,  527,  526
 414,  417,  418,  528,  527
 415,  418,  419,  529,  528
 416,  419,  420,  530,  529
 417,  420,  421,  531,  530
 418,  421,  422,  532,  531
 419,  422,  423,  533,  532
 420,  423,  424,  534,  533
 421,  424,  425,  535,  534
 422,  425,  426,  536,  535
 423,  426,  427,  537,  536
 424,  427,  428,  538,  537
 425,  428,  429,  539,  538
 426,  429,  430,  540,  539
 427,  430,  431,  541,  540
 428,  431,  432,  542,  541
 429,  432,  433,  543,  542
 430,  433,  434,  544,  543
 431,  434,  435,  545,  544
 432,  435,  436,  546,  545
 433,  436,  437,  547,  546
 434,  437,  438,  548,  547
 435,  438,  439,  549,  548
 436,  439,  440,  550,  549
 437,  441,  442,  552,  551
 438,  442,  443,  553,  552
 439,  443,  444,  554,  553
 440,  444,  445,  555,  554
 441,  445,  446,  556,  555
 442,  446,  447,  557,  556
 443,  447,  448,  558,  557
 444,  448,  449,  559,  558
 445,  449,  450,  560,  559
 446,  450,  451,  561,  560
 447,  451,  452,  562,  561
 448,  452,  453,  563,  562
 449,  453,  454,  564,  563
 450,  454,  455,  565,  564
 451,  455,  456,  566,  565
 452,  456,  457,  567,  566
 453,  457,  458,  568,  567
 454,  458,  459,  569,  568
 455,  459,  460,  570,  569
 456,  460,  461,  571,  570
 457,  461,  462,  572,  571
 458,  462,  463,  573,  572
 459,  463,  464,  574,  573
 460,  464,  465,  575,  574
 461,  465,  466,  576,  575
 462,  466,  467,  577,  576
 463,  467,  468,  578,  577
 464,  468,  469,  579,  578
 465,  469,  470,  580,  579
 466,  470,  471,  581,  580
 467,  471,  472,  582,  581
 468,  472,  473,  583,  582
 469,  473,  474,  584,  583
 470,  474,  475,  585,  584
 471,  475,  476,  586,  585
 472,  476,  477,  587,  586
 473,  477,  478,  588,  587
 474,  478,  479,  589,  588
 475,  479,  480,  590,  589
 476,  480,  481,  591,  590
 477,  481,  482,  592,  591
 478,  482,  483,  593,  592
 479,  483,  484,  594,  593
 480,  484,  485,  595,  594
 481,  485,  486,  596,  595
 482,  486,  487,  597,  596
 483,  487,  488,  598,  597
 484,  488,  489,  599,  598
 485,  489,  490,  600,  599
 486,  490,  491,  601,  600
 487,  491,  492,  602,  601
 488,  492,  493,  603,  602
 489,  493,  494,  604,  603
 490,  494,  495,  605,  604
 491,  495,  496,  606,  605
 492,  496,  497,  607,  606
 493,  497,  498,  608,  607
 494,  498,  499,  609,  608
 495,  499,  500,  610,  609
 496,  500,  501,  611,  610
 497,  501,  502,  612,  611
 498,  502,  503,  613,  612
 499,  503,  504,  614,  613
 500,  504,  505,  615,  614
 501,  505,  506,  616,  615
 502,  506,  507,  617,  616
 503,  507,  508,  618,  617
 504,  508,  509,  619,  618
 505,  509,  510,  620,  619
 506,  510,  511,  621,  620
 507,  511,  512,  622,  621
 508,  512,  513,  623,  622
 509,  513,  514,  624,  623
 510,  514,  515,  625,  624
 511,  515,  516,  626,  625
 512,  516,  517,  627,  626
 513,  517,  518,  628,  627
 514,  518,  519,  629,  628
 515,  519,  520,  630,  629
 516,  520,  521,  631,  630
 517,  521,  522,  632,  631
 518,  522,  523,  633,  632
 519,  523,  524,  634,  633
 520,  524,  525,  635,  634
 521,  525,  526,  636,  635
 522,  526,  527,  637,  636
 523,  527,  528,  638,  637
 524,  528,  529,  639,  638
 525,  529,  530,  640,  639
 526,  530,  531,  641,  640
 527,  531,  532,  642,  641
 528,  532,  533,  643,  642
 529,  533,  534,  644,  643
 530,  534,  535,  645,  644
 531,  535,  536,  646,  645
 532,  536,  537,  647,  646
 533,  537,  538,  648,  647
 534,  538,  539,  649,  648
 535,  539,  540,  650,  649
 536,  540,  541,  651,  650
 537,  541,  542,  652,  651
 538,  542,  543,  653,  652
 539,  543,  544,  654,  653
 540,  544,  545,  655,  654
 541,  545,  546,  656,  655
 542,  546,  547,  657,  656
 543,  547,  548,  658,  657
 544,  548,  549,  659,  658
 545,  549,  550,  660,  659
 546,  551,  552,  662,  661
 547,  552,  553,  663,  662
 548,  553,  554,  664,  663
 549,  554,  555,  665,  664
 550,  555,  556,  666,  665
 551,  556,  557,  667,  666
 552,  557,  558,  668,  667
 553,  558,  559,  669,  668
 554,  559,  560,  670,  669
 555,  560,  561,  671,  670
 556,  561,  562,  672,  671
 557,  562,  563,  673,  672
 558,  563,  564,  674,  673
 559,  564,  565,  675,  674
 560,  565,  566,  676,  675
 561,  566,  567,  677,  676
 562,  567,  568,  678,  677
 563,  568,  569,  679,  678
 564,  569,  570,  680,  679
 565,  570,  571,  681,  680
 566,  571,  572,  682,  681
 567,  572,  573,  683,  682
 568,  573,  574,  684,  683
 569,  574,  575,  685,  684
 570,  575,  576,  686,  685
 571,  576,  577,  687,  686
 572,  577,  578,  688,  687
 573,  578,  579,  689,  688
 574,  579,  580,  690,  689
 575,  580,  581,  691,  690
 576,  581,  582,  692,  691
 577,  582,  583,  693,  692
 578,  583,  584,  694,  693
 579,  584,  585,  695,  694
 580,  585,  586,  696,  695
 581,  586,  587,  697,  696
 582,  587,  588,  698,  697
 583,  588,  589,  699,  698
 584,  589,  590,  700,  699
 585,  590,  591,  701,  700
 586,  591,  592,  702,  701
 587,  592,  593,  703,  702
 588,  593,  594,  704,  703
 589,  594,  595,  705,  704
 590,  595,  596,  706,  705
 591,  596,  597,  707,  706
 592,  597,  598,  708,  707
 593,  598,  599,  709,  708
 594,  599,  600,  710,  709
 595,  600,  601,  711,  710
 596,  601,  602,  712,  711
 597,  602,  603,  713,  712
 598,  603,  604,  714,  713
 599,  604,  605,  715,  714
 600,  605,  606,  716,  715
 601,  606,  607,  717,  716
 602,  607,  608,  718,  717
 603,  608,  609,  719,  718
 604,  609,  610,  720,  719
 605,  610,  611,  721,  720
 606,  611,  612,  722,  721
 607,  612,  613,  723,  722
 608,  613,  614,  724,  723
 609,  614,  615,  725,  724
 610,  615,  616,  726,  725
 611,  616,  617,  727,  726
 612,  617,  618,  728,  727
 613,  618,  619,  729,  728
 614,  619,  620,  730,  729
 615,  620,  621,  731,  730
 616,  621,  622,  732,  731
 617,  622,  623,  733,  732
 618,  623,  624,  734,  733
 619,  624,  625,  735,  734
 620,  625,  626,  736,  735
 621,  626,  627,  737,  736
 622,  627,  628,  738,  737
 623,  628,  629,  739,  738
 624,  629,  630,  740,  739
 625,  630,  631,  741,  740
 626,  631,  632,  742,  741
 627,  632,  633,  743,  742
 628,  633,  634,  744,  743
 629,  634,  635,  745,  744
 630,  635,  636,  746,  745
 631,  636,  637,  747,  746
 632,  637,  638,  748,  747
 633,  638,  639,  749,  748
 634,  639,  640,  750,  749
 635,  640,  641,  751,  750
 636,  641,  642,  752,  751
 637,  642,  643,  753,  752
 638,  643,  644,  754,  753
 639,  644,  645,  755,  754
 640,  645,  646,  756,  755
 641,  646,  647,  757,  756
 642,  647,  648,  758,  757
 643,  648,  649,  759,  758
 644,  649,  650,  760,  759
 645,  650,  651,  761,  760
 646,  651,  652,  762,  761
 647,  652,  653,  763,  762
 648,  653,  654,  764,  763
 649,  654,  655,  765,  764
 650,  655,  656,  766,  765
 651,  656,  657,  767,  766
 652,  657,  658,  768,  767
 653,  658,  659,  769,  768
 654,  659,  660,  770,  769
 655,  661,  662,  772,  771
 656,  662,  663,  773,  772
 657,  663,  664,  774,  773
 658,  664,  665,  775,  774
 659,  665,  666,  776,  775
 660,  666,  667,  777,  776
 661,  667,  668,  778,  777
 662,  668,  669,  779,  778
 663,  669,  670,  780,  779
 664,  670,  671,  781,  780
 665,  671,  672,  782,  781
 666,  672,  673,  783,  782
 667,  673,  674,  784,  783
 668,  674,  675,  785,  784
 669,  675,  676,  786,  785
 670,  676,  677,  787,  786
 671,  677,  678,  788,  787
 672,  678,  679,  789,  788
 673,  679,  680,  790,  789
 674,  680,  681,  791,  790
 675,  681,  682,  792,  791
 676,  682,  683,  793,  792
 677,  683,  684,  794,  793
 678,  684,  685,  795,  794
 679,  685,  686,  796,  795
 680,  686,  687,  797,  796
 681,  687,  688,  798,  797
 682,  688,  689,  799,  798
 683,  689,  690,  800,  799
 684,  690,  691,  801,  800
 685,  691,  692,  802,  801
 686,  692,  693,  803,  802
 687,  693,  694,  804,  803
 688,  694,  695,  805,  804
 689,  695,  696,  806,  805
 690,  696,  697,  807,  806
 691,  697,  698,  808,  807
 692,  698,  699,  809,  808
 693,  699,  700,  810,  809
 694,  700,  701,  811,  810
 695,  701,  702,  812,  811
 696,  702,  703,  813,  812
 697,  703,  704,  814,  813
 698,  704,  705,  815,  814
 699,  705,  706,  816,  815
 700,  706,  707,  817,  816
 701,  707,  708,  818,  817
 702,  708,  709,  819,  818
 703,  709,  710,  820,  819
 704,  710,  711,  821,  820
 705,  711,  712,  822,  821
 706,  712,  713,  823,  822
 707,  713,  714,  824,  823
 708,  714,  715,  825,  824
 709,  715,  716,  826,  825
 710,  716,  717,  827,  826
 711,  717,  718,  828,  827
 712,  718,  719,  829,  828
 713,  719,  720,  830,  829
 714,  720,  721,  831,  830
 715,  721,  722,  832,  831
 716,  722,  723,  833,  832
 717,  723,  724,  834,  833
 718,  724,  725,  835,  834
 719,  725,  726,  836,  835
 720,  726,  727,  837,  836
 721,  727,  728,  838,  837
 722,  728,  729,  839,  838
 723,  729,  730,  840,  839
 724,  730,  731,  841,  840
 725,  731,  732,  842,  841
 726,  732,  733,  843,  842
 727,  733,  734,  844,  843
 728,  734,  735,  845,  844
 729,  735,  736,  846,  845
 730,  736,  737,  847,  846
 731,  737,  738,  848,  847
 732,  738,  739,  849,  848
 733,  739,  740,  850,  849
 734,  740,  741,  851,  850
 735,  741,  742,  852,  851
 736,  742,  743,  853,  852
 737,  743,  744,  854,  853
 738,  744,  745,  855,  854
 739,  745,  746,  856,  855
 740,  746,  747,  857,  856
 741,  747,  748,  858,  857
 742,  748,  749,  859,  858
 743,  749,  750,  860,  859
 744,  750,  751,  861,  860
 745,  751,  752,  862,  861
 746,  752,  753,  863,  862
 747,  753,  754,  864,  863
 748,  754,  755,  865,  864
 749,  755,  756,  866,  865
 750,  756,  757,  867,  866
 751,  757,  758,  868,  867
 752,  758,  759,  869,  868
 753,  759,  760,  870,  869
 754,  760,  761,  871,  870
 755,  761,  762,  872,  871
 756,  762,  763,  873,  872
 757,  763,  764,  874,  873
 758,  764,  765,  875,  874
 759,  765,  766,  876,  875
 760,  766,  767,  877,  876
 761,  767,  768,  878,  877
 762,  768,  769,  879,  878
 763,  769,  770,  880,  879
 764,  771,  772,  882,  881
 765,  772,  773,  883,  882
 766,  773,  774,  884,  883
 767,  774,  775,  885,  884
 768,  775,  776,  886,  885
 769,  776,  777,  887,  886
 770,  777,  778,  888,  887
 771,  778,  779,  889,  888
 772,  779,  780,  890,  889
 773,  780,  781,  891,  890
 774,  781,  782,  892,  891
 775,  782,  783,  893,  892
 776,  783,  784,  894,  893
 777,  784,  785,  895,  894
 778,  785,  786,  896,  895
 779,  786,  787,  897,  896
 780,  787,  788,  898,  897
 781,  788,  789,  899,  898
 782,  789,  790,  900,  899
 783,  790,  791,  901,  900
 784,  791,  792,  902,  901
 785,  792,  793,  903,  902
 786,  793,  794,  904,  903
 787,  794,  795,  905,  904
 788,  795,  796,  906,  905
 789,  796,  797,  907,  906
 790,  797,  798,  908,  907
 791,  798,  799,  909,  908
 792,  799,  800,  910,  909
 793,  800,  801,  911,  910
 794,  801,  802,  912,  911
 795,  802,  803,  913,  912
 796,  803,  804,  914,  913
 797,  804,  805,  915,  914
 798,  805,  806,  916,  915
 799,  806,  807,  917,  916
 800,  807,  808,  918,  917
 801,  808,  809,  919,  918
 802,  809,  810,  920,  919
 803,  810,  811,  921,  920
 804,  811,  812,  922,  921
 805,  812,  813,  923,  922
 806,  813,  814,  924,  923
 807,  814,  815,  925,  924
 808,  815,  816,  926,  925
 809,  816,  817,  927,  926
 810,  817,  818,  928,  927
 811,  818,  819,  929,  928
 812,  819,  820,  930,  929
 813,  820,  821,  931,  930
 814,  821,  822,  932,  931
 815,  822,  823,  933,  932
 816,  823,  824,  934,  933
 817,  824,  825,  935,  934
 818,  825,  826,  936,  935
 819,  826,  827,  937,  936
 820,  827,  828,  938,  937
 821,  828,  829,  939,  938
 822,  829,  830,  940,  939
 823,  830,  831,  941,  940
 824,  831,  832,  942,  941
 825,  832,  833,  943,  942
 826,  833,  834,  944,  943
 827,  834,  835,  945,  944
 828,  835,  836,  946,  945
 829,  836,  837,  947,  946
 830,  837,  838,  948,  947
 831,  838,  839,  949,  948
 832,  839,  840,  950,  949
 833,  840,  841,  951,  950
 834,  841,  842,  952,  951
 835,  842,  843,  953,  952
 836,  843,  844,  954,  953
 837,  844,  845,  955,  954
 838,  845,  846,  956,  955
 839,  846,  847,  957,  956
 840,  847,  848,  958,  957
 841,  848,  849,  959,  958
 842,  849,  850,  960,  959
 843,  850,  851,  961,  960
 844,  851,  852,  962,  961
 845,  852,  853,  963,  962
 846,  853,  854,  964,  963
 847,  854,  855,  965,  964
 848,  855,  856,  966,  965
 849,  856,  857,  967,  966
 850,  857,  858,  968,  967
 851,  858,  859,  969,  968
 852,  859,  860,  970,  969
 853,  860,  861,  971,  970
 854,  861,  862,  972,  971
 855,  862,  863,  973,  972
 856,  863,  864,  974,  973
 857,  864,  865,  975,  974
 858,  865,  866,  976,  975
 859,  866,  867,  977,  976
 860,  867,  868,  978,  977
 861,  868,  869,  979,  978
 862,  869,  870,  980,  979
 863,  870,  871,  981,  980
 864,  871,  872,  982,  981
 865,  872,  873,  983,  982
 866,  873,  874,  984,  983
 867,  874,  875,  985,  984
 868,  875,  876,  986,  985
 869,  876,  877,  987,  986
 870,  877,  878,  988,  987
 871,  878,  879,  989,  988
 872,  879,  880,  990,  989
 873,  881,  882,  992,  991
 874,  882,  883,  993,  992
 875,  883,  884,  994,  993
 876,  884,  885,  995,  994
 877,  885,  886,  996,  995
 878,  886,  887,  997,  996
 879,  887,  888,  998,  997
 880,  888,  889,  999,  998
 881,  889,  890, 1000,  999
 882,  890,  891, 1001, 1000
 883,  891,  892, 1002, 1001
 884,  892,  893, 1003, 1002
 885,  893,  894, 1004, 1003
 886,  894,  895, 1005, 1004
 887,  895,  896, 1006, 1005
 888,  896,  897, 1007, 1006
 889,  897,  898, 1008, 1007
 890,  898,  899, 1009, 1008
 891,  899,  900, 1010, 1009
 892,  900,  901, 1011, 1010
 893,  901,  902, 1012, 1011
 894,  902,  903, 1013, 1012
 895,  903,  904, 1014, 1013
 896,  904,  905, 1015, 1014
 897,  905,  906, 1016, 1015
 898,  906,  907, 1017, 1016
 899,  907,  908, 1018, 1017
 900,  908,  909, 1019, 1018
 901,  909,  910, 1020, 1019
 902,  910,  911, 1021, 1020
 903,  911,  912, 1022, 1021
 904,  912,  913, 1023, 1022
 905,  913,  914, 1024, 1023
 906,  914,  915, 1025, 1024
 907,  915,  916, 1026, 1025
 908,  916,  917, 1027, 1026
 909,  917,  918, 1028, 1027
 910,  918,  919, 1029, 1028
 911,  919,  920, 1030, 1029
 912,  920,  921, 1031, 1030
 913,  921,  922, 1032, 1031
 914,  922,  923, 1033, 1032
 915,  923,  924, 1034, 1033
 916,  924,  925, 1035, 1034
 917,  925,  926, 1036, 1035
 918,  926,  927, 1037, 1036
 919,  927,  928, 1038, 1037
 920,  928,  929, 1039, 1038
 921,  929,  930, 1040, 1039
 922,  930,  931, 1041, 1040
 923,  931,  932, 1042, 1041
 924,  932,  933, 1043, 1042
 925,  933,  934, 1044, 1043
 926,  934,  935, 1045, 1044
 927,  935,  936, 1046, 1045
 928,  936,  937, 1047, 1046
 929,  937,  938, 1048, 1047
 930,  938,  939, 1049, 1048
 931,  939,  940, 1050, 1049
 932,  940,  941, 1051, 1050
 933,  941,  942, 1052, 1051
 934,  942,  943, 1053, 1052
 935,  943,  944, 1054, 1053
 936,  944,  945, 1055, 1054
 937,  945,  946, 1056, 1055
 938,  946,  947, 1057, 1056
 939,  947,  948, 1058, 1057
 940,  948,  949, 1059, 1058
 941,  949,  950, 1060, 1059
 942,  950,  951, 1061, 1060
 943,  951,  952, 1062, 1061
 944,  952,  953, 1063, 1062
 945,  953,  954, 1064, 1063
 946,  954,  955, 1065, 1064
 947,  955,  956, 1066, 1065
 948,  956,  957, 1067, 1066
 949,  957,  958, 1068, 1067
 950,  958,  959, 1069, 1068
 951,  959,  960, 1070, 1069
 952,  960,  961, 1071, 1070
 953,  961,  962, 1072, 1071
 954,  962,  963, 1073, 1072
 955,  963,  964, 1074, 1073
 956,  964,  965, 1075, 1074
 957,  965,  966, 1076, 1075
 958,  966,  967, 1077, 1076
 959,  967,  968, 1078, 1077
 960,  968,  969, 1079, 1078
 961,  969,  970, 1080, 1079
 962,  970,  971, 1081, 1080
 963,  971,  972, 1082, 1081
 964,  972,  973, 1083, 1082
 965,  973,  974, 1084, 1083
 966,  974,  975, 1085, 1084
 967,  975,  976, 1086, 1085
 968,  976,  977, 1087, 1086
 969,  977,  978, 1088, 1087
 970,  978,  979, 1089, 1088
 971,  979,  980, 1090, 1089
 972,  980,  981, 1091, 1090
 973,  981,  982, 1092, 1091
 974,  982,  983, 1093, 1092
 975,  983,  984, 1094, 1093
 976,  984,  985, 1095, 1094
 977,  985,  986, 1096, 1095
 978,  986,  987, 1097, 1096
 979,  987,  988, 1098, 1097
 980,  988,  989, 1099, 1098
 981,  989,  990, 1100, 1099
 982,  991,  992, 1102, 1101
 983,  992,  993, 1103, 1102
 984,  993,  994, 1104, 1103
 985,  994,  995, 1105, 1104
 986,  995,  996, 1106, 1105
 987,  996,  997, 1107, 1106
 988,  997,  998, 1108, 1107
 989,  998,  999, 1109, 1108
 990,  999, 1000, 1110, 1109
 991, 1000, 1001, 1111, 1110
 992, 1001, 1002, 1112, 1111
 993, 1002, 1003, 1113, 1112
 994, 1003, 1004, 1114, 1113
 995, 1004, 1005, 1115, 1114
 996, 1005, 1006, 1116, 1115
 997, 1006, 1007, 1117, 1116
 998, 1007, 1008, 1118, 1117
 999, 1008, 1009, 1119, 1118
1000, 1009, 1010, 1120, 1119
1001, 1010, 1011, 1121, 1120
1002, 1011, 1012, 1122, 1121
1003, 1012, 1013, 1123, 1122
1004, 1013, 1014, 1124, 1123
1005, 1014, 1015, 1125, 1124
1006, 1015, 1016, 1126, 1125
1007, 1016, 1017, 1127, 1126
1008, 1017, 1018, 1128, 1127
1009, 1018, 1019, 1129, 1128
1010, 1019, 1020, 1130, 1129
1011, 1020, 1021, 1131, 1130
1012, 1021, 1022, 1132, 1131
1013, 1022, 1023, 1133, 1132
1014, 1023, 1024, 1134, 1133
1015, 1024, 1025, 1135, 1134
1016, 1025, 1026, 1136, 1135
1017, 1026, 1027, 1137, 1136
1018, 1027, 1028, 1138, 1137
1019, 1028, 1029, 1139, 1138
1020, 1029, 1030, 1140, 1139
1021, 1030, 1031, 1141, 1140
1022, 1031, 1032, 1142, 1141
1023, 1032, 1033, 1143, 1142
1024, 1033, 1034, 1144, 1143
1025, 1034, 1035, 1145, 1144
1026, 1035, 1036, 1146, 1145
1027, 1036, 1037, 1147, 1146
1028, 1037, 1038, 1148, 1147
1029, 1038, 1039, 1149, 1148
1030, 1039, 1040, 1150, 1149
1031, 1040, 1041, 1151, 1150
1032, 1041, 1042, 1152, 1151
1033, 1042, 1043, 1153, 1152
1034, 1043, 1044, 1154, 1153
1035, 1044, 1045, 1155, 1154
1036, 1045, 1046, 1156, 1155
1037, 1046, 1047, 1157, 1156
1038, 1047, 1048, 1158, 1157
1039, 1048, 1049, 1159, 1158
1040, 1049, 1050, 1160, 1159
1041, 1050, 1051, 1161, 1160
1042, 1051, 1052, 1162, 1161
1043, 1052, 1053, 1163, 1162
1044, 1053, 1054, 1164, 1163
1045, 1054, 1055, 1165, 1164
1046, 1055, 1056, 1166, 1165
1047, 1056, 1057, 1167, 1166
1048, 1057, 1058, 1168, 1167
1049, 1058, 1059, 1169, 1168
1050, 1059, 1060, 1170, 1169
1051, 1060, 1061, 1171, 1170
1052, 1061, 1062, 1172, 1171
1053, 1062, 1063, 1173, 1172
1054, 1063, 1064, 1174, 1173
1055, 1064, 1065, 1175, 1174
1056, 1065, 1066, 1176, 1175
1057, 1066, 1067, 1177, 1176
1058, 1067, 1068, 1178, 1177
1059, 1068, 1069, 1179, 1178
1060, 1069, 1070, 1180, 1179
1061, 1070, 1071, 1181, 1180
1062, 1071, 1072, 1182, 1181
1063, 1072, 1073, 1183, 1182
1064, 1073, 1074, 1184, 1183
1065, 1074, 1075, 1185, 1184
1066, 1075, 1076, 1186, 1185
1067, 1076, 1077, 1187, 1186
1068, 1077, 1078, 1188, 1187
1069, 1078, 1079, 1189, 1188
1070, 1079, 1080, 1190, 1189
1071, 1080, 1081, 1191, 1190
1072, 1081, 1082, 1192, 1191
1073, 1082, 1083, 1193, 1192
1074, 1083, 1084, 1194, 1193
1075, 1084, 1085, 1195, 1194
1076, 1085, 1086, 1196, 1195
1077, 1086, 1087, 1197, 1196
1078, 1087, 1088, 1198, 1197
1079, 1088, 1089, 1199, 1198
1080, 1089, 1090, 1200, 1199
1081, 1090, 1091, 1201, 1200
1082, 1091, 1092, 1202, 1201
1083, 1092, 1093, 1203, 1202
1084, 1093, 1094, 1204, 1203
1085, 1094, 1095, 1205, 1204
1086, 1095, 1096, 1206, 1205
1087, 1096, 1097, 1207, 1206
1088, 1097, 1098, 1208, 1207
1089, 1098, 1099, 1209, 1208
1090, 1099, 1100, 1210, 1209
1091, 1101, 1102, 1212, 1211
1092, 1102, 1103, 1213, 1212
1093, 1103, 1104, 1214, 1213
1094, 1104, 1105, 1215, 1214
1095, 1105, 1106, 1216, 1215
1096, 1106, 1107, 1217, 1216
1097, 1107, 1108, 1218, 1217
1098, 1108, 1109, 1219, 1218
1099, 1109, 1110, 1220, 1219
1100, 1110, 1111, 1221, 1220
1101, 1111, 1112, 1222, 1221
1102, 1112, 1113, 1223, 1222
1103, 1113, 1114, 1224, 1223
1104, 1114, 1115, 1225, 1224
1105, 1115, 1116, 1226, 1225
1106, 1116, 1117, 1227, 1226
1107, 1117, 1118, 1228, 1227
1108, 1118, 1119, 1229, 1228
1109, 1119, 1120, 1230, 1229
1110, 1120, 1121, 1231, 1230
1111, 1121, 1122, 1232, 1231
1112, 1122, 1123, 1233, 1232
1113, 1123, 1124, 1234, 1233
1114, 1124, 1125, 1235, 1234
1115, 1125, 1126, 1236, 1235
1116, 1126, 1127, 1237, 1236
1117, 1127, 1128, 1238, 1237
1118, 1128, 1129, 1239, 1238
1119, 1129, 1130, 1240, 1239
1120, 1130, 1131, 1241, 1240
1121, 1131, 1132, 1242, 1241
1122, 1132, 1133, 1243, 1242
1123, 1133, 1134, 1244, 1243
1124, 1134, 1135, 1245, 1244
1125, 1135, 1136, 1246, 1245
1126, 1136, 1137, 1247, 1246
1127, 1137, 1138, 1248, 1247
1128, 1138, 1139, 1249, 1248
1129, 1139, 1140, 1250, 1249
1130, 1140, 1141, 1251, 1250
1131, 1141, 1142, 1252, 1251
1132, 1142, 1143, 1253, 1252
1133, 1143, 1144, 1254, 1253
1134, 1144, 1145, 1255, 1254
1135, 1145, 1146, 1256, 1255
1136, 1146, 1147, 1257, 1256
1137, 1147, 1148, 1258, 1257
1138, 1148, 1149, 1259, 1258
1139, 1149, 1150, 1260, 1259
1140, 1150, 1151, 1261, 1260
1141, 1151, 1152, 1262, 1261
1142, 1152, 1153, 1263, 1262
1143, 1153, 1154, 1264, 1263
1144, 1154, 1155, 1265, 1264
1145, 1155, 1156, 1266, 1265
1146, 1156, 1157, 1267, 1266
1147, 1157, 1158, 1268, 1267
1148, 1158, 1159, 1269, 1268
1149, 1159, 1160, 1270, 1269
1150, 1160, 1161, 1271, 1270
1151, 1161, 1162, 1272, 1271
1152, 1162, 1163, 1273, 1272
1153, 1163, 1164, 1274, 1273
1154, 1164, 1165, 1275, 1274
1155, 1165, 1166, 1276, 1275
1156, 1166, 1167, 1277, 1276
1157, 1167, 1168, 1278, 1277
1158, 1168, 1169, 1279, 1278
1159, 1169, 1170, 1280, 1279
1160, 1170, 1171, 1281, 1280
1161, 1171, 1172, 1282, 1281
1162, 1172, 1173, 1283, 1282
1163, 1173, 1174, 1284, 1283
1164, 1174, 1175, 1285, 1284
1165, 1175, 1176, 1286, 1285
1166, 1176, 1177, 1287, 1286
1167, 1177, 1178, 1288, 1287
1168, 1178, 1179, 1289, 1288
1169, 1179, 1180, 1290, 1289
1170, 1180, 1181, 1291, 1290
1171, 1181, 1182, 1292, 1291
1172, 1182, 1183, 1293, 1292
1173, 1183, 1184, 1294, 1293
1174, 1184, 1185, 1295, 1294
1175, 1185, 1186, 1296, 1295
1176, 1186, 1187, 1297, 1296
1177, 1187, 1188, 1298, 1297
1178, 1188, 1189, 1299, 1298
1179, 1189, 1190, 1300, 1299
1180, 1190, 1191, 1301, 1300
1181, 1191, 1192, 1302, 1301
1182, 1192, 1193, 1303, 1302
1183, 1193, 1194, 1304, 1303
1184, 1194, 1195, 1305, 1304
1185, 1195, 1196, 1306, 1305
1186, 1196, 1197, 1307, 1306
1187, 1197, 1198, 1308, 1307
1188, 1198, 1199, 1309, 1308
1189, 1199, 1200, 1310, 1309
1190, 1200, 1201, 1311, 1310
1191, 1201, 1202, 1312, 1311
1192, 1202, 1203, 1313, 1312
1193, 1203, 1204, 1314, 1313
1194, 1204, 1205, 1315, 1314
1195, 1205, 1206, 1316, 1315
1196, 1206, 1207, 1317, 1316
1197, 1207, 1208, 1318, 1317
1198, 1208, 1209, 1319, 1318
1199, 1209, 1210, 1320, 1319
1200, 1211, 1212, 1322, 1321
1201, 1212, 1213, 1323, 1322
1202, 1213, 1214, 1324, 1323
1203, 1214, 1215, 1325, 1324
1204, 1215, 1216, 1326, 1325
1205, 1216, 1217, 1327, 1326
1206, 1217, 1218, 1328, 1327
1207, 1218, 1219, 1329, 1328
1208, 1219, 1220, 1330, 1329
1209, 1220, 1221, 1331, 1330
1210, 1221, 1222, 1332, 1331
1211, 1222, 1223, 1333, 1332
1212, 1223, 1224, 1334, 1333
1213, 1224, 1225, 1335, 1334
1214, 1225, 1226, 1336, 1335
1215, 1226, 1227, 1337, 1336
1216, 1227, 1228, 1338, 1337
1217, 1228, 1229, 1339, 1338
1218, 1229, 1230, 1340, 1339
1219, 1230, 1231, 1341, 1340
1220, 1231, 1232, 1342, 1341
1221, 1232, 1233, 1343, 1342
1222, 1233, 1234, 1344, 1343
1223, 1234, 1235, 1345, 1344
1224, 1235, 1236, 1346, 1345
1225, 1236, 1237, 1347, 1346
1226, 1237, 1238, 1348, 1347
1227, 1238, 1239, 1349, 1348
1228, 1239, 1240, 1350, 1349
1229, 1240, 1241, 1351, 1350
1230, 1241, 1242, 1352, 1351
1231, 1242, 1243, 1353, 1352
1232, 1243, 1244, 1354, 1353
1233, 1244, 1245, 1355, 1354
1234, 1245, 1246, 1356, 1355
1235, 1246, 1247, 1357, 1356
1236, 1247, 1248, 1358, 1357
1237, 1248, 1249, 1359, 1358
1238, 1249, 1250, 1360, 1359
1239, 1250, 1251, 1361, 1360
1240, 1251, 1252, 1362, 1361
1241, 1252, 1253, 1363, 1362
1242, 1253, 1254, 1364, 1363
1243, 1254, 1255, 1365, 1364
1244, 1255, 1256, 1366, 1365
1245, 1256, 1257, 1367, 1366
1246, 1257, 1258, 1368, 1367
1247, 1258, 1259, 1369, 1368
1248, 1259, 1260, 1370, 1369
1249, 1260, 1261, 1371, 1370
1250, 1261, 1262, 1372, 1371
1251, 1262, 1263, 1373, 1372
1252, 1263, 1264, 1374, 1373
1253, 1264, 1265, 1375, 1374
1254, 1265, 1266, 1376, 1375
1255, 1266, 1267, 1377, 1376
1256, 1267, 1268, 1378, 1377
1257, 1268, 1269, 1379, 1378
1258, 1269, 1270, 1380, 1379
1259, 1270, 1271, 1381, 1380
1260, 1271, 1272, 1382, 1381
1261, 1272, 1273, 1383, 1382
1262, 1273, 1274, 1384, 1383
1263, 1274, 1275, 1385, 1384
1264, 1275, 1276, 1386, 1385
1265, 1276, 1277, 1387, 1386
1266, 1277, 1278, 1388, 1387
1267, 1278, 1279, 1389, 1388
1268, 1279, 1280, 1390, 1389
1269, 1280, 1281, 1391, 1390
1270, 1281, 1282, 1392, 1391
1271, 1282, 1283, 1393, 1392
1272, 1283, 1284, 1394, 1393
1273, 1284, 1285, 1395, 1394
1274, 1285, 1286, 1396, 1395
1275, 1286, 1287, 1397, 1396
1276, 1287, 1288, 1398, 1397
1277, 1288, 1289, 1399, 1398
1278, 1289, 1290, 1400, 1399
1279, 1290, 1291, 1401, 1400
1280, 1291, 1292, 1402, 1401
1281, 1292, 1293, 1403, 1402
1282, 1293, 1294, 1404, 1403
1283, 1294, 1295, 1405, 1404
1284, 1295, 1296, 1406, 1405
1285, 1296, 1297, 1407, 1406
1286, 1297, 1298, 1408, 1407
1287, 1298, 1299, 1409, 1408
1288, 1299, 1300, 1410, 1409
1289, 1300, 1301, 1411, 1410
1290, 1301, 1302, 1412, 1411
1291, 1302, 1303, 1413, 1412
1292, 1303, 1304, 1414, 1413
1293, 1304, 1305, 1415, 1414
1294, 1305, 1306, 1416, 1415
1295, 1306, 1307, 1417, 1416
1296, 1307, 1308, 1418, 1417
1297, 1308, 1309, 1419, 1418
1298, 1309, 1310, 1420, 1419
1299, 1310, 1311, 1421, 1420
1300, 1311, 1312, 1422, 1421
1301, 1312, 1313, 1423, 1422
1302, 1313, 1314, 1424, 1423
1303, 1314, 1315, 1425, 1424
1304, 1315, 1316, 1426, 1425
1305, 1316, 1317, 1427, 1426
1306, 1317, 1318, 1428, 1427
1307, 1318, 1319, 1429, 1428
1308, 1319, 1320, 1430, 1429
1309, 1321, 1322, 1432, 1431
1310, 1322, 1323, 1433, 1432
1311, 1323, 1324, 1434, 1433
1312, 1324, 1325, 1435, 1434
1313, 1325, 1326, 1436, 1435
1314, 1326, 1327, 1437, 1436
1315, 1327, 1328, 1438, 1437
1316, 1328, 1329, 1439, 1438
1317, 1329, 1330, 1440, 1439
1318, 1330, 1331, 1441, 1440
1319, 1331, 1332, 1442, 1441
1320, 1332, 1333, 1443, 1442
1321, 1333, 1334, 1444, 1443
1322, 1334, 1335, 1445, 1444
1323, 1335, 1336, 1446, 1445
1324, 1336, 1337, 1447, 1446
1325, 1337, 1338, 1448, 1447
1326, 1338, 1339, 1449, 1448
1327, 1339, 1340, 1450, 1449
1328, 1340, 1341, 1451, 1450
1329, 1341, 1342, 1452, 1451
1330, 1342, 1343, 1453, 1452
1331, 1343, 1344, 1454, 1453
1332, 1344, 1345, 1455, 1454
1333, 1345, 1346, 1456, 1455
1334, 1346, 1347, 1457, 1456
1335, 1347, 1348, 1458, 1457
1336, 1348, 1349, 1459, 1458
1337, 1349, 1350, 1460, 1459
1338, 1350, 1351, 1461, 1460
1339, 1351, 1352, 1462, 1461
1340, 1352, 1353, 1463, 1462
1341, 1353, 1354, 1464, 1463
1342, 1354, 1355, 1465, 1464
1343, 1355, 1356, 1466, 1465
1344, 1356, 1357, 1467, 1466
1345, 1357, 1358, 1468, 1467
1346, 1358, 1359, 1469, 1468
1347, 1359, 1360, 1470, 1469
1348, 1360, 1361, 1471, 1470
1349, 1361, 1362, 1472, 1471
1350, 1362, 1363, 1473, 1472
1351, 1363, 1364, 1474, 1473
1352, 1364, 1365, 1475, 1474
1353, 1365, 1366, 1476, 1475
1354, 1366, 1367, 1477, 1476
1355, 1367, 1368, 1478, 1477
1356, 1368, 1369, 1479, 1478
1357, 1369, 1370, 1480, 1479
1358, 1370, 1371, 1481, 1480
1359, 1371, 1372, 1482, 1481
1360, 1372, 1373, 1483, 1482
1361, 1373, 1374, 1484, 1483
1362, 1374, 1375, 1485, 1484
1363, 1375, 1376, 1486, 1485
1364, 1376, 1377, 1487, 1486
1365, 1377, 1378, 1488, 1487
1366, 1378, 1379, 1489, 1488
1367, 1379, 1380, 1490, 1489
1368, 1380, 1381, 1491, 1490
1369, 1381, 1382, 1492, 1491
1370, 1382, 1383, 1493, 1492
1371, 1383, 1384, 1494, 1493
1372, 1384, 1385, 1495, 1494
1373, 1385, 1386, 1496, 1495
1374, 1386, 1387, 1497, 1496
1375, 1387, 1388, 1498, 1497
1376, 1388, 1389, 1499, 1498
1377, 1389, 1390, 1500, 1499
1378, 1390, 1391, 1501, 1500
1379, 1391, 1392, 1502, 1501
1380, 1392, 1393, 1503, 1502
1381, 1393, 1394, 1504, 1503
1382, 1394, 1395, 1505, 1504
1383, 1395, 1396, 1506, 1505
1384, 1396, 1397, 1507, 1506
1385, 1397, 1398, 1508, 1507
1386, 1398, 1399, 1509, 1508
1387, 1399, 1400, 1510, 1509
1388, 1400, 1401, 1511, 1510
1389, 1401, 1402, 1512, 1511
1390, 1402, 1403, 1513, 1512
1391, 1403, 1404, 1514, 1513
1392, 1404, 1405, 1515, 1514
1393, 1405, 1406, 1516, 1515
1394, 1406, 1407, 1517, 1516
1395, 1407, 1408, 1518, 1517
1396, 1408, 1409, 1519, 1518
1397, 1409, 1410, 1520, 1519
1398, 1410, 1411, 1521, 1520
1399, 1411, 1412, 1522, 1521
1400, 1412, 1413, 1523, 1522
1401, 1413, 1414, 1524, 1523
1402, 1414, 1415, 1525, 1524
1403, 1415, 1416, 1526, 1525
1404, 1416, 1417, 1527, 1526
1405, 1417, 1418, 1528, 1527
1406, 1418, 1419, 1529, 1528
1407, 1419, 1420, 1530, 1529
1408, 1420, 1421, 1531, 1530
1409, 1421, 1422, 1532, 1531
1410, 1422, 1423, 1533, 1532
1411, 1423, 1424, 1534, 1533
1412, 1424, 1425, 1535, 1534
1413, 1425, 1426, 1536, 1535
1414, 1426, 1427, 1537, 1536
1415, 1427, 1428, 1538, 1537
1416, 1428, 1429, 1539, 1538
1417, 1429, 1430, 1540, 1539
1418, 1431, 1432, 1542, 1541
1419, 1432, 1433, 1543, 1542
1420, 1433, 1434, 1544, 1543
1421, 1434, 1435, 1545, 1544
1422, 1435, 1436, 1546, 1545
1423, 1436, 1437, 1547, 1546
1424, 1437, 1438, 1548, 1547
1425, 1438, 1439, 1549, 1548
1426, 1439, 1440, 1550, 1549
1427, 1440, 1441, 1551, 1550
1428, 1441, 1442, 1552, 1551
1429, 1442, 1443, 1553, 1552
1430, 1443, 1444, 1554, 1553
1431, 1444, 1445, 1555, 1554
1432, 1445, 1446, 1556, 1555
1433, 1446, 1447, 1557, 1556
1434, 1447, 1448, 1558, 1557
1435, 1448, 1449, 1559, 1558
1436, 1449, 1450, 1560, 1559
1437, 1450, 1451, 1561, 1560
1438, 1451, 1452, 1562, 1561
1439, 1452, 1453, 1563, 1562
1440, 1453, 1454, 1564, 1563
1441, 1454, 1455, 1565, 1564
1442, 1455, 1456, 1566, 1565
1443, 1456, 1457, 1567, 1566
1444, 1457, 1458, 1568, 1567
1445, 1458, 1459, 1569, 1568
1446, 1459, 1460, 1570, 1569
1447, 1460, 1461, 1571, 1570
1448, 1461, 1462, 1572, 1571
1449, 1462, 1463, 1573, 1572
1450, 1463, 1464, 1574, 1573
1451, 1464, 1465, 1575, 1574
1452, 1465, 1466, 1576, 1575
1453, 1466, 1467, 1577, 1576
1454, 1467, 1468, 1578, 1577
1455, 1468, 1469, 1579, 1578
1456, 1469, 1470, 1580, 1579
1457, 1470, 1471, 1581, 1580
1458, 1471, 1472, 1582, 1581
1459, 1472, 1473, 1583, 1582
1460, 1473, 1474, 1584, 1583
1461, 1474, 1475, 1585, 1584
1462, 1475, 1476, 1586, 1585
1463, 1476, 1477, 1587, 1586
1464, 1477, 1478, 1588, 1587
1465, 1478, 1479, 1589, 1588
1466, 1479, 1480, 1590, 1589
1467, 1480, 1481, 1591, 1590
1468, 1481, 1482, 1592, 1591
1469, 1482, 1483, 1593, 1592
1470, 1483, 1484, 1594, 1593
1471, 1484, 1485, 1595, 1594
1472, 1485, 1486, 1596, 1595
1473, 1486, 1487, 1597, 1596
1474, 1487, 1488, 1598, 1597
1475, 1488, 1489, 1599, 1598
1476, 1489, 1490, 1600, 1599
1477, 1490, 1491, 1601, 1600
1478, 1491, 1492, 1602, 1601
1479, 1492, 1493, 1603, 1602
1480, 1493, 1494, 1604, 1603
1481, 1494, 1495, 1605, 1604
1482, 1495, 1496, 1606, 1605
1483, 1496, 1497, 1607, 1606
1484, 1497, 1498, 1608, 1607
1485, 1498, 1499, 1609, 1608
1486, 1499, 1500, 1610, 1609
1487, 1500, 1501, 1611, 1610
1488, 1501, 1502, 1612, 1611
1489, 1502, 1503, 1613, 1612
1490, 1503, 1504, 1614, 1613
1491, 1504, 1505, 1615, 1614
1492, 1505, 1506, 1616, 1615
1493, 1506, 1507, 1617, 1616
1494, 1507, 1508, 1618, 1617
1495, 1508, 1509, 1619, 1618
1496, 1509, 1510, 1620, 1619
1497, 1510, 1511, 1621, 1620
1498, 1511, 1512, 1622, 1621
1499, 1512, 1513, 1623, 1622
1500, 1513, 1514, 1624, 1623
1501, 1514, 1515, 1625, 1624
1502, 1515, 1516, 1626, 1625
1503, 1516, 1517, 1627, 1626
1504, 1517, 1518, 1628, 1627
1505, 1518, 1519, 1629, 1628
1506, 1519, 1520, 1630, 1629
1507, 1520, 1521, 1631, 1630
1508, 1521, 1522, 1632, 1631
1509, 1522, 1523, 1633, 1632
1510, 1523, 1524, 1634, 1633
1511, 1524, 1525, 1635, 1634
1512, 1525, 1526, 1636, 1635
1513, 1526, 1527, 1637, 1636
1514, 1527, 1528, 1638, 1637
1515, 1528, 1529, 1639, 1638
1516, 1529, 1530, 1640, 1639
1517, 1530, 1531, 1641, 1640
1518, 1531, 1532, 1642, 1641
1519, 1532, 1533, 1643, 1642
1520, 1533, 1534, 1644, 1643
1521, 1534, 1535, 1645, 1644
1522, 1535, 1536, 1646, 1645
1523, 1536, 1537, 1647, 1646
1524, 1537, 1538, 1648, 1647
1525, 1538, 1539, 1649, 1648
1526, 1539, 1540, 1650, 1649
1527, 1541, 1542, 1652, 1651
1528, 1542, 1543, 1653, 1652
1529, 1543, 1544, 1654, 1653
1530, 1544, 1545, 1655, 1654
1531, 1545, 1546, 1656, 1655
1532, 1546, 1547, 1657, 1656
1533, 1547, 1548, 1658, 1657
1534, 1548, 1549, 1659, 1658
1535, 1549, 1550, 1660, 1659
1536, 1550, 1551, 1661, 1660
1537, 1551, 1552, 1662, 1661
1538, 1552, 1553, 1663, 1662
1539, 1553, 1554, 1664, 1663
1540, 1554, 1555, 1665, 1664
1541, 1555, 1556, 1666, 1665
1542, 1556, 1557, 1667, 1666
1543, 1557, 1558, 1668, 1667
1544, 1558, 1559, 1669, 1668
1545, 1559, 1560, 1670, 1669
1546, 1560, 1561, 1671, 1670
1547, 1561, 1562, 1672, 1671
1548, 1562, 1563, 1673, 1672
1549, 1563, 1564, 1674, 1673
1550, 1564, 1565, 1675, 1674
1551, 1565, 1566, 1676, 1675
1552, 1566, 1567, 1677, 1676
1553, 1567, 1568, 1678, 1677
1554, 1568, 1569, 1679, 1678
1555, 1569, 1570, 1680, 1679
1556, 1570, 1571, 1681, 1680
1557, 1571, 1572, 1682, 1681
1558, 1572, 1573, 1683, 1682
1559, 1573, 1574, 1684, 1683
1560, 1574, 1575, 1685, 1684
1561, 1575, 1576, 1686, 1685
1562, 1576, 1577, 1687, 1686
1563, 1577, 1578, 1688, 1687
1564, 1578, 1579, 1689, 1688
1565, 1579, 1580, 1690, 1689
1566, 1580, 1581, 1691, 1690
1567, 1581, 1582, 1692, 1691
1568, 1582, 1583, 1693, 1692
1569, 1583, 1584, 1694, 1693
1570, 1584, 1585, 1695, 1694
1571, 1585, 1586, 1696, 1695
1572, 1586, 1587, 1697, 1696
1573, 1587, 1588, 1698, 1697
1574, 1588, 1589, 1699, 1698
1575, 1589, 1590, 1700, 1699
1576, 1590, 1591, 1701, 1700
1577, 1591, 1592, 1702, 1701
1578, 1592, 1593, 1703, 1702
1579, 1593, 1594, 1704, 1703
1580, 1594, 1595, 1705, 1704
1581, 1595, 1596, 1706, 1705
1582, 1596, 1597, 1707, 1706
1583, 1597, 1598, 1708, 1707
1584, 1598, 1599, 1709, 1708
1585, 1599, 1600, 1710, 1709
1586, 1600, 1601, 1711, 1710
1587, 1601, 1602, 1712, 1711
1588, 1602, 1603, 1713, 1712
1589, 1603, 1604, 1714, 1713
1590, 1604, 1605, 1715, 1714
1591, 1605, 1606, 1716, 1715
1592, 1606, 1607, 1717, 1716
1593, 1607, 1608, 1718, 1717
1594, 1608, 1609, 1719, 1718
1595, 1609, 1610, 1720, 1719
1596, 1610, 1611, 1721, 1720
1597, 1611, 1612, 1722, 1721
1598, 1612, 1613, 1723, 1722
1599, 1613, 1614, 1724, 1723
1600, 1614, 1615, 1725, 1724
1601, 1615, 1616, 1726, 1725
1602, 1616, 1617, 1727, 1726
1603, 1617, 1618, 1728, 1727
1604, 1618, 1619, 1729, 1728
1605, 1619, 1620, 1730, 1729
1606, 1620, 1621, 1731, 1730
1607, 1621, 1622, 1732, 1731
1608, 1622, 1623, 1733, 1732
1609, 1623, 1624, 1734, 1733
1610, 1624, 1625, 1735, 1734
1611, 1625, 1626, 1736, 1735
1612, 1626, 1627, 1737, 1736
1613, 1627, 1628, 1738, 1737
1614, 1628, 1629, 1739, 1738
1615, 1629, 1630, 1740, 1739
1616, 1630, 1631, 1741, 1740
1617, 1631, 1632, 1742, 1741
1618, 1632, 1633, 1743, 1742
1619, 1633, 1634, 1744, 1743
1620, 1634, 1635, 1745, 1744
1621, 1635, 1636, 1746, 1745
1622, 1636, 1637, 1747, 1746
1623, 1637, 1638, 1748, 1747
1624, 1638, 1639, 1749, 1748
1625, 1639, 1640, 1750, 1749
1626, 1640, 1641, 1751, 1750
1627, 1641, 1642, 1752, 1751
1628, 1642, 1643, 1753, 1752
1629, 1643, 1644, 1754, 1753
1630, 1644, 1645, 1755, 1754
1631, 1645, 1646, 1756, 1755
1632, 1646, 1647, 1757, 1756
1633, 1647, 1648, 1758, 1757
1634, 1648, 1649, 1759, 1758
1635, 1649, 1650, 1760, 1759
1636, 1651, 1652, 1762, 1761
1637, 1652, 1653, 1763, 1762
1638, 1653, 1654, 1764, 1763
1639, 1654, 1655, 1765, 1764
1640, 1655, 1656, 1766, 1765
1641, 1656, 1657, 1767, 1766
1642, 1657, 1658, 1768, 1767
1643, 1658, 1659, 1769, 1768
1644, 1659, 1660, 1770, 1769
1645, 1660, 1661, 1771, 1770
1646, 1661, 1662, 1772, 1771
1647, 1662, 1663, 1773, 1772
1648, 1663, 1664, 1774, 1773
1649, 1664, 1665, 1775, 1774
1650, 1665, 1666, 1776, 1775
1651, 1666, 1667, 1777, 1776
1652, 1667, 1668, 1778, 1777
1653, 1668, 1669, 1779, 1778
1654, 1669, 1670, 1780, 1779
1655, 1670, 1671, 1781, 1780
1656, 1671, 1672, 1782, 1781
1657, 1672, 1673, 1783, 1782
1658, 1673, 1674, 1784, 1783
1659, 1674, 1675, 1785, 1784
1660, 1675, 1676, 1786, 1785
1661, 1676, 1677, 1787, 1786
1662, 1677, 1678, 1788, 1787
1663, 1678, 1679, 1789, 1788
1664, 1679, 1680, 1790, 1789
1665, 1680, 1681, 1791, 1790
1666, 1681, 1682, 1792, 1791
1667, 1682, 1683, 1793, 1792
1668, 1683, 1684, 1794, 1793
1669, 1684, 1685, 1795, 1794
1670, 1685, 1686, 1796, 1795
1671, 1686, 1687, 1797, 1796
1672, 1687, 1688, 1798, 1797
1673, 1688, 1689, 1799, 1798
1674, 1689, 1690, 1800, 1799
1675, 1690, 1691, 1801, 1800
1676, 1691, 1692, 1802, 1801
1677, 1692, 1693, 1803, 1802
1678, 1693, 1694, 1804, 1803
1679, 1694, 1695, 1805, 1804
1680, 1695, 1696, 1806, 1805
1681, 1696, 1697, 1807, 1806
1682, 1697, 1698, 1808, 1807
1683, 1698, 1699, 1809, 1808
1684, 1699, 1700, 1810, 1809
1685, 1700, 1701, 1811, 1810
1686, 1701, 1702, 1812, 1811
1687, 1702, 1703, 1813, 1812
1688, 1703, 1704, 1814, 1813
1689, 1704, 1705, 1815, 1814
1690, 1705, 1706, 1816, 1815
1691, 1706, 1707, 1817, 1816
1692, 1707, 1708, 1818, 1817
1693, 1708, 1709, 1819, 1818
1694, 1709, 1710, 1820, 1819
1695, 1710, 1711, 1821, 1820
1696, 1711, 1712, 1822, 1821
1697, 1712, 1713, 1823, 1822
1698, 1713, 1714, 1824, 1823
1699, 1714, 1715, 1825, 1824
1700, 1715, 1716, 1826, 1825
1701, 1716, 1717, 1827, 1826
1702, 1717, 1718, 1828, 1827
1703, 1718, 1719, 1829, 1828
1704, 1719, 1720, 1830, 1829
1705, 1720, 1721, 1831, 1830
1706, 1721, 1722, 1832, 1831
1707, 1722, 1723, 1833, 1832
1708, 1723, 1724, 1834, 1833
1709, 1724, 1725, 1835, 1834
1710, 1725, 1726, 1836, 1835
1711, 1726, 1727, 1837, 1836
1712, 1727, 1728, 1838, 1837
1713, 1728, 1729, 1839, 1838
1714, 1729, 1730, 1840, 1839
1715, 1730, 1731, 1841, 1840
1716, 1731, 1732, 1842, 1841
1717, 1732, 1733, 1843, 1842
1718, 1733, 1734, 1844, 1843
1719, 1734, 1735, 1845, 1844
1720, 1735, 1736, 1846, 1845
1721, 1736, 1737, 1847, 1846
1722, 1737, 1738, 1848, 1847
1723, 1738, 1739, 1849, 1848
1724, 1739, 1740, 1850, 1849
1725, 1740, 1741, 1851, 1850
1726, 1741, 1742, 1852, 1851
1727, 1742, 1743, 1853, 1852
1728, 1743, 1744, 1854, 1853
1729, 1744, 1745, 1855, 1854
1730, 1745, 1746, 1856, 1855
1731, 1746, 1747, 1857, 1856
1732, 1747, 1748, 1858, 1857
1733, 1748, 1749, 1859, 1858
1734, 1749, 1750, 1860, 1859
1735, 1750, 1751, 1861, 1860
1736, 1751, 1752, 1862, 1861
1737, 1752, 1753, 1863, 1862
1738, 1753, 1754, 1864, 1863
1739, 1754, 1755, 1865, 1864
1740, 1755, 1756, 1866, 1865
1741, 1756, 1757, 1867, 1866
1742, 1757, 1758, 1868, 1867
1743, 1758, 1759, 1869, 1868
1744, 1759, 1760, 1870, 1869
1745, 1761, 1762, 1872, 1871
1746, 1762, 1763, 1873, 1872
1747, 1763, 1764, 1874, 1873
1748, 1764, 1765, 1875, 1874
1749, 1765, 1766, 1876, 1875
1750, 1766, 1767, 1877, 1876
1751, 1767, 1768, 1878, 1877
1752, 1768, 1769, 1879, 1878
1753, 1769, 1770, 1880, 1879
1754, 1770, 1771, 1881, 1880
1755, 1771, 1772, 1882, 1881
1756, 1772, 1773, 1883, 1882
1757, 1773, 1774, 1884, 1883
1758, 1774, 1775, 1885, 1884
1759, 1775, 1776, 1886, 1885
1760, 1776, 1777, 1887, 1886
1761, 1777, 1778, 1888, 1887
1762, 1778, 1779, 1889, 1888
1763, 1779, 1780, 1890, 1889
1764, 1780, 1781, 1891, 1890
1765, 1781, 1782, 1892, 1891
1766, 1782, 1783, 1893, 1892
1767, 1783, 1784, 1894, 1893
1768, 1784, 1785, 1895, 1894
1769, 1785, 1786, 1896, 1895
1770, 1786, 1787, 1897, 1896
1771, 1787, 1788, 1898, 1897
1772, 1788, 1789, 1899, 1898
1773, 1789, 1790, 1900, 1899
1774, 1790, 1791, 1901, 1900
1775, 1791, 1792, 1902, 1901
1776, 1792, 1793, 1903, 1902
1777, 1793, 1794, 1904, 1903
1778, 1794, 1795, 1905, 1904
1779, 1795, 1796, 1906, 1905
1780, 1796, 1797, 1907, 1906
1781, 1797, 1798, 1908, 1907
1782, 1798, 1799, 1909, 1908
1783, 1799, 1800, 1910, 1909
1784, 1800, 1801, 1911, 1910
1785, 1801, 1802, 1912, 1911
1786, 1802, 1803, 1913, 1912
1787, 1803, 1804, 1914, 1913
1788, 1804, 1805, 1915, 1914
1789, 1805, 1806, 1916, 1915
1790, 1806, 1807, 1917, 1916
1791, 1807, 1808, 1918, 1917
1792, 1808, 1809, 1919, 1918
1793, 1809, 1810, 1920, 1919
1794, 1810, 1811, 1921, 1920
1795, 1811, 1812, 1922, 1921
1796, 1812, 1813, 1923, 1922
1797, 1813, 1814, 1924, 1923
1798, 1814, 1815, 1925, 1924
1799, 1815, 1816, 1926, 1925
1800, 1816, 1817, 1927, 1926
1801, 1817, 1818, 1928, 1927
1802, 1818, 1819, 1929, 1928
1803, 1819, 1820, 1930, 1929
1804, 1820, 1821, 1931, 1930
1805, 1821, 1822, 1932, 1931
1806, 1822, 1823, 1933, 1932
1807, 1823, 1824, 1934, 1933
1808, 1824, 1825, 1935, 1934
1809, 1825, 1826, 1936, 1935
1810, 1826, 1827, 1937, 1936
1811, 1827, 1828, 1938, 1937
1812, 1828, 1829, 1939, 1938
1813, 1829, 1830, 1940, 1939
1814, 1830, 1831, 1941, 1940
1815, 1831, 1832, 1942, 1941
1816, 1832, 1833, 1943, 1942
1817, 1833, 1834, 1944, 1943
1818, 1834, 1835, 1945, 1944
1819, 1835, 1836, 1946, 1945
1820, 1836, 1837, 1947, 1946
1821, 1837, 1838, 1948, 1947
1822, 1838, 1839, 1949, 1948
1823, 1839, 1840, 1950, 1949
1824, 1840, 1841, 1951, 1950
1825, 1841, 1842, 1952, 1951
1826, 1842, 1843, 1953, 1952
1827, 1843, 1844, 1954, 1953
1828, 1844, 1845, 1955, 1954
1829, 1845, 1846, 1956, 1955
1830, 1846, 1847, 1957, 1956
1831, 1847, 1848, 1958, 1957
1832, 1848, 1849, 1959, 1958
1833, 1849, 1850, 1960, 1959
1834, 1850, 1851, 1961, 1960
1835, 1851, 1852, 1962, 1961
1836, 1852, 1853, 1963, 1962
1837, 1853, 1854, 1964, 1963
1838, 1854, 1855, 1965, 1964
1839, 1855, 1856, 1966, 1965
1840, 1856, 1857, 1967, 1966
1841, 1857, 1858, 1968, 1967
1842, 1858, 1859, 1969, 1968
1843, 1859, 1860, 1970, 1969
1844, 1860, 1861, 1971, 1970
1845, 1861, 1862, 1972, 1971
1846, 1862, 1863, 1973, 1972
1847, 1863, 1864, 1974, 1973
1848, 1864, 1865, 1975, 1974
1849, 1865, 1866, 1976, 1975
1850, 1866, 1867, 1977, 1976
1851, 1867, 1868, 1978, 1977
1852, 1868, 1869, 1979, 1978
1853, 1869, 1870, 1980, 1979
1854, 1871, 1872, 1982, 1981
1855, 1872, 1873, 1983, 1982
1856, 1873, 1874, 1984, 1983
1857, 1874, 1875, 1985, 1984
1858, 1875, 1876, 1986, 1985
1859, 1876, 1877, 1987, 1986
1860, 1877, 1878, 1988, 1987
1861, 1878, 1879, 1989, 1988
1862, 1879, 1880, 1990, 1989
1863, 1880, 1881, 1991, 1990
1864, 1881, 1882, 1992, 1991
1865, 1882, 1883, 1993, 1992
1866, 1883, 1884, 1994, 1993
1867, 1884, 1885, 1995, 1994
1868, 1885, 1886, 1996, 1995
1869, 1886, 1887, 1997, 1996
1870, 1887, 1888, 1998, 1997
1871, 1888, 1889, 1999, 1998
1872, 1889, 1890, 2000, 1999
1873, 1890, 1891, 2001, 2000
1874, 1891, 1892, 2002, 2001
1875, 1892, 1893, 2003, 2002
1876, 1893, 1894, 2004, 2003
1877, 1894, 1895, 2005, 2004
1878, 1895, 1896, 2006, 2005
1879, 1896, 1897, 2007, 2006
1880, 1897, 1898, 2008, 2007
1881, 1898, 1899, 2009, 2008
1882, 1899, 1900, 2010, 2009
1883, 1900, 1901, 2011, 2010
1884, 1901, 1902, 2012, 2011
1885, 1902, 1903, 2013, 2012
1886, 1903, 1904, 2014, 2013
1887, 1904, 1905, 2015, 2014
1888, 1905, 1906, 2016, 2015
1889, 1906, 1907, 2017, 2016
1890, 1907, 1908, 2018, 2017
1891, 1908, 1909, 2019, 2018
1892, 1909, 1910, 2020, 2019
1893, 1910, 1911, 2021, 2020
1894, 1911, 1912, 2022, 2021
1895, 1912, 1913, 2023, 2022
1896, 1913, 1914, 2024, 2023
1897, 1914, 1915, 2025, 2024
1898, 1915, 1916, 2026, 2025
1899, 1916, 1917, 2027, 2026
1900, 1917, 1918, 2028, 2027
1901, 1918, 1919, 2029, 2028
1902, 1919, 1920, 2030, 2029
1903, 1920, 1921, 2031, 2030
1904, 1921, 1922, 2032, 2031
1905, 1922, 1923, 2033, 2032
1906, 1923, 1924, 2034, 2033
1907, 1924, 1925, 2035, 2034
1908, 1925, 1926, 2036, 2035
1909, 1926, 1927, 2037, 2036
1910, 1927, 1928, 2038, 2037
1911, 1928, 1929, 2039, 2038
1912, 1929, 1930, 2040, 2039
1913, 1930, 1931, 2041, 2040
1914, 1931, 1932, 2042, 2041
1915, 1932, 1933, 2043, 2042
1916, 1933, 1934, 2044, 2043
1917, 1934, 1935, 2045, 2044
1918, 1935, 1936, 2046, 2045
1919, 1936, 1937, 2047, 2046
1920, 1937, 1938, 2048, 2047
1921, 1938, 1939, 2049, 2048
1922, 1939, 1940, 2050, 2049
1923, 1940, 1941, 2051, 2050
1924, 1941, 1942, 2052, 2051
1925, 1942, 1943, 2053, 2052
1926, 1943, 1944, 2054, 2053
1927, 1944, 1945, 2055, 2054
1928, 1945, 1946, 2056, 2055
1929, 1946, 1947, 2057, 2056
1930, 1947, 1948, 2058, 2057
1931, 1948, 1949, 2059, 2058
1932, 1949, 1950, 2060, 2059
1933, 1950, 1951, 2061, 2060
1934, 1951, 1952, 2062, 2061
1935, 1952, 1953, 2063, 2062
1936, 1953, 1954, 2064, 2063
1937, 1954, 1955, 2065, 2064
1938, 1955, 1956, 2066, 2065
1939, 1956, 1957, 2067, 2066
1940, 1957, 1958, 2068, 2067
1941, 1958, 1959, 2069, 2068
1942, 1959, 1960, 2070, 2069
1943, 1960, 1961, 2071, 2070
1944, 1961, 1962, 2072, 2071
1945, 1962, 1963, 2073, 2072
1946, 1963, 1964, 2074, 2073
1947, 1964, 1965, 2075, 2074
1948, 1965, 1966, 2076, 2075
1949, 1966, 1967, 2077, 2076
1950, 1967, 1968, 2078, 2077
1951, 1968, 1969, 2079, 2078
1952, 1969, 1970, 2080, 2079
1953, 1970, 1971, 2081, 2080
1954, 1971, 1972, 2082, 2081
1955, 1972, 1973, 2083, 2082
1956, 1973, 1974, 2084, 2083
1957, 1974, 1975, 2085, 2084
1958, 1975, 1976, 2086, 2085
1959, 1976, 1977, 2087, 2086
1960, 1977, 1978, 2088, 2087
1961, 1978, 1979, 2089, 2088
1962, 1979, 1980, 2090, 2089
1963, 1981, 1982, 2092, 2091
1964, 1982, 1983, 2093, 2092
1965, 1983, 1984, 2094, 2093
1966, 1984, 1985, 2095, 2094
1967, 1985, 1986, 2096, 2095
1968, 1986, 1987, 2097, 2096
1969, 1987, 1988, 2098, 2097
1970, 1988, 1989, 2099, 2098
1971, 1989, 1990, 2100, 2099
1972, 1990, 1991, 2101, 2100
1973, 1991, 1992, 2102, 2101
1974, 1992, 1993, 2103, 2102
1975, 1993, 1994, 2104, 2103
1976, 1994, 1995, 2105, 2104
1977, 1995, 1996, 2106, 2105
1978, 1996, 1997, 2107, 2106
1979, 1997, 1998, 2108, 2107
1980, 1998, 1999, 2109, 2108
1981, 1999, 2000, 2110, 2109
1982, 2000, 2001, 2111, 2110
1983, 2001, 2002, 2112, 2111
1984, 2002, 2003, 2113, 2112
1985, 2003, 2004, 2114, 2113
1986, 2004, 2005, 2115, 2114
1987, 2005, 2006, 2116, 2115
1988, 2006, 2007, 2117, 2116
1989, 2007, 2008, 2118, 2117
1990, 2008, 2009, 2119, 2118
1991, 2009, 2010, 2120, 2119
1992, 2010, 2011, 2121, 2120
1993, 2011, 2012, 2122, 2121
1994, 2012, 2013, 2123, 2122
1995, 2013, 2014, 2124, 2123
1996, 2014, 2015, 2125, 2124
1997, 2015, 2016, 2126, 2125
1998, 2016, 2017, 2127, 2126
1999, 2017, 2018, 2128, 2127
2000, 2018, 2019, 2129, 2128
2001, 2019, 2020, 2130, 2129
2002, 2020, 2021, 2131, 2130
2003, 2021, 2022, 2132, 2131
2004, 2022, 2023, 2133, 2132
2005, 2023, 2024, 2134, 2133
2006, 2024, 2025, 2135, 2134
2007, 2025, 2026, 2136, 2135
2008, 2026, 2027, 2137, 2136
2009, 2027, 2028, 2138, 2137
2010, 2028, 2029, 2139, 2138
2011, 2029, 2030, 2140, 2139
2012, 2030, 2031, 2141, 2140
2013, 2031, 2032, 2142, 2141
2014, 2032, 2033, 2143, 2142
2015, 2033, 2034, 2144, 2143
2016, 2034, 2035, 2145, 2144
2017, 2035, 2036, 2146, 2145
2018, 2036, 2037, 2147, 2146
2019, 2037, 2038, 2148, 2147
2020, 2038, 2039, 2149, 2148
2021, 2039, 2040, 2150, 2149
2022, 2040, 2041, 2151, 2150
2023, 2041, 2042, 2152, 2151
2024, 2042, 2043, 2153, 2152
2025, 2043, 2044, 2154, 2153
2026, 2044, 2045, 2155, 2154
2027, 2045, 2046, 2156, 2155
2028, 2046, 2047, 2157, 2156
2029, 2047, 2048, 2158, 2157
2030, 2048, 2049, 2159, 2158
2031, 2049, 2050, 2160, 2159
2032, 2050, 2051, 2161, 2160
2033, 2051, 2052, 2162, 2161
2034, 2052, 2053, 2163, 2162
2035, 2053, 2054, 2164, 2163
2036, 2054, 2055, 2165, 2164
2037, 2055, 2056, 2166, 2165
2038, 2056, 2057, 2167, 2166
2039, 2057, 2058, 2168, 2167
2040, 2058, 2059, 2169, 2168
2041, 2059, 2060, 2170, 2169
2042, 2060, 2061, 2171, 2170
2043, 2061, 2062, 2172, 2171
2044, 2062, 2063, 2173, 2172
2045, 2063, 2064, 2174, 2173
2046, 2064, 2065, 2175, 2174
2047, 2065, 2066, 2176, 2175
2048, 2066, 2067, 2177, 2176
2049, 2067, 2068, 2178, 2177
2050, 2068, 2069, 2179, 2178
2051, 2069, 2070, 2180, 2179
2052, 2070, 2071, 2181, 2180
2053, 2071, 2072, 2182, 2181
2054, 2072, 2073, 2183, 2182
2055, 2073, 2074, 2184, 2183
2056, 2074, 2075, 2185, 2184
2057, 2075, 2076, 2186, 2185
2058, 2076, 2077, 2187, 2186
2059, 2077, 2078, 2188, 2187
2060, 2078, 2079, 2189, 2188
2061, 2079, 2080, 2190, 2189
2062, 2080, 2081, 2191, 2190
2063, 2081, 2082, 2192, 2191
2064, 2082, 2083, 2193, 2192
2065, 2083, 2084, 2194, 2193
2066, 2084, 2085, 2195, 2194
2067, 2085, 2086, 2196, 2195
2068, 2086, 2087, 2197, 2196
2069, 2087, 2088, 2198, 2197
2070, 2088, 2089, 2199, 2198
2071, 2089, 2090, 2200, 2199
2072, 2091, 2092, 2202, 2201
2073, 2092, 2093, 2203, 2202
2074, 2093, 2094, 2204, 2203
2075, 2094, 2095, 2205, 2204
2076, 2095, 2096, 2206, 2205
2077, 2096, 2097, 2207, 2206
2078, 2097, 2098, 2208, 2207
2079, 2098, 2099, 2209, 2208
2080, 2099, 2100, 2210, 2209
2081, 2100, 2101, 2211, 2210
2082, 2101, 2102, 2212, 2211
2083, 2102, 2103, 2213, 2212
2084, 2103, 2104, 2214, 2213
2085, 2104, 2105, 2215, 2214
2086, 2105, 2106, 2216, 2215
2087, 2106, 2107, 2217, 2216
2088, 2107, 2108, 2218, 2217
2089, 2108, 2109, 2219, 2218
2090, 2109, 2110, 2220, 2219
2091, 2110, 2111, 2221, 2220
2092, 2111, 2112, 2222, 2221
2093, 2112, 2113, 2223, 2222
2094, 2113, 2114, 2224, 2223
2095, 2114, 2115, 2225, 2224
2096, 2115, 2116, 2226, 2225
2097, 2116, 2117, 2227, 2226
2098, 2117, 2118, 2228, 2227
2099, 2118, 2119, 2229, 2228
2100, 2119, 2120, 2230, 2229
2101, 2120, 2121, 2231, 2230
2102, 2121, 2122, 2232, 2231
2103, 2122, 2123, 2233, 2232
2104, 2123, 2124, 2234, 2233
2105, 2124, 2125, 2235, 2234
2106, 2125, 2126, 2236, 2235
2107, 2126, 2127, 2237, 2236
2108, 2127, 2128, 2238, 2237
2109, 2128, 2129, 2239, 2238
2110, 2129, 2130, 2240, 2239
2111, 2130, 2131, 2241, 2240
2112, 2131, 2132, 2242, 2241
2113, 2132, 2133, 2243, 2242
2114, 2133, 2134, 2244, 2243
2115, 2134, 2135, 2245, 2244
2116, 2135, 2136, 2246, 2245
2117, 2136, 2137, 2247, 2246
2118, 2137, 2138, 2248, 2247
2119, 2138, 2139, 2249, 2248
2120, 2139, 2140, 2250, 2249
2121, 2140, 2141, 2251, 2250
2122, 2141, 2142, 2252, 2251
2123, 2142, 2143, 2253, 2252
2124, 2143, 2144, 2254, 2253
2125, 2144, 2145, 2255, 2254
2126, 2145, 2146, 2256, 2255
2127, 2146, 2147, 2257, 2256
2128, 2147, 2148, 2258, 2257
2129, 2148, 2149, 2259, 2258
2130, 2149, 2150, 2260, 2259
2131, 2150, 2151, 2261, 2260
2132, 2151, 2152, 2262, 2261
2133, 2152, 2153, 2263, 2262
2134, 2153, 2154, 2264, 2263
2135, 2154, 2155, 2265, 2264
2136, 2155, 2156, 2266, 2265
2137, 2156, 2157, 2267, 2266
2138, 2157, 2158, 2268, 2267
2139, 2158, 2159, 2269, 2268
2140, 2159, 2160, 2270, 2269
2141, 2160, 2161, 2271, 2270
2142, 2161, 2162, 2272, 2271
2143, 2162, 2163, 2273, 2272
2144, 2163, 2164, 2274, 2273
2145, 2164, 2165, 2275, 2274
2146, 2165, 2166, 2276, 2275
2147, 2166, 2167, 2277, 2276
2148, 2167, 2168, 2278, 2277
2149, 2168, 2169, 2279, 2278
2150, 2169, 2170, 2280, 2279
2151, 2170, 2171, 2281, 2280
2152, 2171, 2172, 2282, 2281
2153, 2172, 2173, 2283, 2282
2154, 2173, 2174, 2284, 2283
2155, 2174, 2175, 2285, 2284
2156, 2175, 2176, 2286, 2285
2157, 2176, 2177, 2287, 2286
2158, 2177, 2178, 2288, 2287
2159, 2178, 2179, 2289, 2288
2160, 2179, 2180, 2290, 2289
2161, 2180, 2181, 2291, 2290
2162, 2181, 2182, 2292, 2291
2163, 2182, 2183, 2293, 2292
2164, 2183, 2184, 2294, 2293
2165, 2184, 2185, 2295, 2294
2166, 2185, 2186, 2296, 2295
2167, 2186, 2187, 2297, 2296
2168, 2187, 2188, 2298, 2297
2169, 2188, 2189, 2299, 2298
2170, 2189, 2190, 2300, 2299
2171, 2190, 2191, 2301, 2300
2172, 2191, 2192, 2302, 2301
2173, 2192, 2193, 2303, 2302
2174, 2193, 2194, 2304, 2303
2175, 2194, 2195, 2305, 2304
2176, 2195, 2196, 2306, 2305
2177, 2196, 2197, 2307, 2306
2178, 2197, 2198, 2308, 2307
2179, 2198, 2199, 2309, 2308
2180, 2199, 2200, 2310, 2309
2181, 2201, 2202, 2312, 2311
2182, 2202, 2203, 2313, 2312
2183, 2203, 2204, 2314, 2313
2184, 2204, 2205, 2315, 2314
2185, 2205, 2206, 2316, 2315
2186, 2206, 2207, 2317, 2316
2187, 2207, 2208, 2318, 2317
2188, 2208, 2209, 2319, 2318
2189, 2209, 2210, 2320, 2319
2190, 2210, 2211, 2321, 2320
2191, 2211, 2212, 2322, 2321
2192, 2212, 2213, 2323, 2322
2193, 2213, 2214, 2324, 2323
2194, 2214, 2215, 2325, 2324
2195, 2215, 2216, 2326, 2325
2196, 2216, 2217, 2327, 2326
2197, 2217, 2218, 2328, 2327
2198, 2218, 2219, 2329, 2328
2199, 2219, 2220, 2330, 2329
2200, 2220, 2221, 2331, 2330
2201, 2221, 2222, 2332, 2331
2202, 2222, 2223, 2333, 2332
2203, 2223, 2224, 2334, 2333
2204, 2224, 2225, 2335, 2334
2205, 2225, 2226, 2336, 2335
2206, 2226, 2227, 2337, 2336
2207, 2227, 2228, 2338, 2337
2208, 2228, 2229, 2339, 2338
2209, 2229, 2230, 2340, 2339
2210, 2230, 2231, 2341, 2340
2211, 2231, 2232, 2342, 2341
2212, 2232, 2233, 2343, 2342
2213, 2233, 2234, 2344, 2343
2214, 2234, 2235, 2345, 2344
2215, 2235, 2236, 2346, 2345
2216, 2236, 2237, 2347, 2346
2217, 2237, 2238, 2348, 2347
2218, 2238, 2239, 2349, 2348
2219, 2239, 2240, 2350, 2349
2220, 2240, 2241, 2351, 2350
2221, 2241, 2242, 2352, 2351
2222, 2242, 2243, 2353, 2352
2223, 2243, 2244, 2354, 2353
2224, 2244, 2245, 2355, 2354
2225, 2245, 2246, 2356, 2355
2226, 2246, 2247, 2357, 2356
2227, 2247, 2248, 2358, 2357
2228, 2248, 2249, 2359, 2358
2229, 2249, 2250, 2360, 2359
2230, 2250, 2251, 2361, 2360
2231, 2251, 2252, 2362, 2361
2232, 2252, 2253, 2363, 2362
2233, 2253, 2254, 2364, 2363
2234, 2254, 2255, 2365, 2364
2235, 2255, 2256, 2366, 2365
2236, 2256, 2257, 2367, 2366
2237, 2257, 2258, 2368, 2367
2238, 2258, 2259, 2369, 2368
2239, 2259, 2260, 2370, 2369
2240, 2260, 2261, 2371, 2370
2241, 2261, 2262, 2372, 2371
2242, 2262, 2263, 2373, 2372
2243, 2263, 2264, 2374, 2373
2244, 2264, 2265, 2375, 2374
2245, 2265, 2266, 2376, 2375
2246, 2266, 2267, 2377, 2376
2247, 2267, 2268, 2378, 2377
2248, 2268, 2269, 2379, 2378
2249, 2269, 2270, 2380, 2379
2250, 2270, 2271, 2381, 2380
2251, 2271, 2272, 2382, 2381
2252, 2272, 2273, 2383, 2382
2253, 2273, 2274, 2384, 2383
2254, 2274, 2275, 2385, 2384
2255, 2275, 2276, 2386, 2385
2256, 2276, 2277, 2387, 2386
2257, 2277, 2278, 2388, 2387
2258, 2278, 2279, 2389, 2388
2259, 2279, 2280, 2390, 2389
2260, 2280, 2281, 2391, 2390
2261, 2281, 2282, 2392, 2391
2262, 2282, 2283, 2393, 2392
2263, 2283, 2284, 2394, 2393
2264, 2284, 2285, 2395, 2394
2265, 2285, 2286, 2396, 2395
2266, 2286, 2287, 2397, 2396
2267, 2287, 2288, 2398, 2397
2268, 2288, 2289, 2399, 2398
2269, 2289, 2290, 2400, 2399
2270, 2290, 2291, 2401, 2400
2271, 2291, 2292, 2402, 2401
2272, 2292, 2293, 2403, 2402
2273, 2293, 2294, 2404, 2403
2274, 2294, 2295, 2405, 2404
2275, 2295, 2296, 2406, 2405
2276, 2296, 2297, 2407, 2406
2277, 2297, 2298, 2408, 2407
2278, 2298, 2299, 2409, 2408
2279, 2299, 2300, 2410, 2409
2280, 2300, 2301, 2411, 2410
2281, 2301, 2302, 2412, 2411
2282, 2302, 2303, 2413, 2412
2283, 2303, 2304, 2414, 2413
2284, 2304, 2305, 2415, 2414
2285, 2305, 2306, 2416, 2415
2286, 2306, 2307, 2417, 2416
2287, 2307, 2308, 2418, 2417
2288, 2308, 2309, 2419, 2418
2289, 2309, 2310, 2420, 2419
2290, 2311, 2312, 2422, 2421
2291, 2312, 2313, 2423, 2422
2292, 2313, 2314, 2424, 2423
2293, 2314, 2315, 2425, 2424
2294, 2315, 2316, 2426, 2425
2295, 2316, 2317, 2427, 2426
2296, 2317, 2318, 2428, 2427
2297, 2318, 2319, 2429, 2428
2298, 2319, 2320, 2430, 2429
2299, 2320, 2321, 2431, 2430
2300, 2321, 2322, 2432, 2431
2301, 2322, 2323, 2433, 2432
2302, 2323, 2324, 2434, 2433
2303, 2324, 2325, 2435, 2434
2304, 2325, 2326, 2436, 2435
2305, 2326, 2327, 2437, 2436
2306, 2327, 2328, 2438, 2437
2307, 2328, 2329, 2439, 2438
2308, 2329, 2330, 2440, 2439
2309, 2330, 2331, 2441, 2440
2310, 2331, 2332, 2442, 2441
2311, 2332, 2333, 2443, 2442
2312, 2333, 2334, 2444, 2443
2313, 2334, 2335, 2445, 2444
2314, 2335, 2336, 2446, 2445
2315, 2336, 2337, 2447, 2446
2316, 2337, 2338, 2448, 2447
2317, 2338, 2339, 2449, 2448
2318, 2339, 2340, 2450, 2449
2319, 2340, 2341, 2451, 2450
2320, 2341, 2342, 2452, 2451
2321, 2342, 2343, 2453, 2452
2322, 2343, 2344, 2454, 2453
2323, 2344, 2345, 2455, 2454
2324, 2345, 2346, 2456, 2455
2325, 2346, 2347, 2457, 2456
2326, 2347, 2348, 2458, 2457
2327, 2348, 2349, 2459, 2458
2328, 2349, 2350, 2460, 2459
2329, 2350, 2351, 2461, 2460
2330, 2351, 2352, 2462, 2461
2331, 2352, 2353, 2463, 2462
2332, 2353, 2354, 2464, 2463
2333, 2354, 2355, 2465, 2464
2334, 2355, 2356, 2466, 2465
2335, 2356, 2357, 2467, 2466
2336, 2357, 2358, 2468, 2467
2337, 2358, 2359, 2469, 2468
2338, 2359, 2360, 2470, 2469
2339, 2360, 2361, 2471, 2470
2340, 2361, 2362, 2472, 2471
2341, 2362, 2363, 2473, 2472
2342, 2363, 2364, 2474, 2473
2343, 2364, 2365, 2475, 2474
2344, 2365, 2366, 2476, 2475
2345, 2366, 2367, 2477, 2476
2346, 2367, 2368, 2478, 2477
2347, 2368, 2369, 2479, 2478
2348, 2369, 2370, 2480, 2479
2349, 2370, 2371, 2481, 2480
2350, 2371, 2372, 2482, 2481
2351, 2372, 2373, 2483, 2482
2352, 2373, 2374, 2484, 2483
2353, 2374, 2375, 2485, 2484
2354, 2375, 2376, 2486, 2485
2355, 2376, 2377, 2487, 2486
2356, 2377, 2378, 2488, 2487
2357, 2378, 2379, 2489, 2488
2358, 2379, 2380, 2490, 2489
2359, 2380, 2381, 2491, 2490
2360, 2381, 2382, 2492, 2491
2361, 2382, 2383, 2493, 2492
2362, 2383, 2384, 2494, 2493
2363, 2384, 2385, 2495, 2494
2364, 2385, 2386, 2496, 2495
2365, 2386, 2387, 2497, 2496
2366, 2387, 2388, 2498, 2497
2367, 2388, 2389, 2499, 2498
2368, 2389, 2390, 2500, 2499
2369, 2390, 2391, 2501, 2500
2370, 2391, 2392, 2502, 2501
2371, 2392, 2393, 2503, 2502
2372, 2393, 2394, 2504, 2503
2373, 2394, 2395, 2505, 2504
2374, 2395, 2396, 2506, 2505
2375, 2396, 2397, 2507, 2506
2376, 2397, 2398, 2508, 2507
2377, 2398, 2399, 2509, 2508
2378, 2399, 2400, 2510, 2509
2379, 2400, 2401, 2511, 2510
2380, 2401, 2402, 2512, 2511
2381, 2402, 2403, 2513, 2512
2382, 2403, 2404, 2514, 2513
2383, 2404, 2405, 2515, 2514
2384, 2405, 2406, 2516, 2515
2385, 2406, 2407, 2517, 2516
2386, 2407, 2408, 2518, 2517
2387, 2408, 2409, 2519, 2518
2388, 2409, 2410, 2520, 2519
2389, 2410, 2411, 2521, 2520
2390, 2411, 2412, 2522, 2521
2391, 2412, 2413, 2523, 2522
2392, 2413, 2414, 2524, 2523
2393, 2414, 2415, 2525, 2524
2394, 2415, 2416, 2526, 2525
2395, 2416, 2417, 2527, 2526
2396, 2417, 2418, 2528, 2527
2397, 2418, 2419, 2529, 2528
2398, 2419, 2420, 2530, 2529
2399, 2421, 2422, 2532, 2531
2400, 2422, 2423, 2533, 2532
2401, 2423, 2424, 2534, 2533
2402, 2424, 2425, 2535, 2534
2403, 2425, 2426, 2536, 2535
2404, 2426, 2427, 2537, 2536
2405, 2427, 2428, 2538, 2537
2406, 2428, 2429, 2539, 2538
2407, 2429, 2430, 2540, 2539
2408, 2430, 2431, 2541, 2540
2409, 2431, 2432, 2542, 2541
2410, 2432, 2433, 2543, 2542
2411, 2433, 2434, 2544, 2543
2412, 2434, 2435, 2545, 2544
2413, 2435, 2436, 2546, 2545
2414, 2436, 2437, 2547, 2546
2415, 2437, 2438, 2548, 2547
2416, 2438, 2439, 2549, 2548
2417, 2439, 2440, 2550, 2549
2418, 2440, 2441, 2551, 2550
2419, 2441, 2442, 2552, 2551
2420, 2442, 2443, 2553, 2552
2421, 2443, 2444, 2554, 2553
2422, 2444, 2445, 2555, 2554
2423, 2445, 2446, 2556, 2555
2424, 2446, 2447, 2557, 2556
2425, 2447, 2448, 2558, 2557
2426, 2448, 2449, 2559, 2558
2427, 2449, 2450, 2560, 2559
2428, 2450, 2451, 2561, 2560
2429, 2451, 2452, 2562, 2561
2430, 2452, 2453, 2563, 2562
2431, 2453, 2454, 2564, 2563
2432, 2454, 2455, 2565, 2564
2433, 2455, 2456, 2566, 2565
2434, 2456, 2457, 2567, 2566
2435, 2457, 2458, 2568, 2567
2436, 2458, 2459, 2569, 2568
2437, 2459, 2460, 2570, 2569
2438, 2460, 2461, 2571, 2570
2439, 2461, 2462, 2572, 2571
2440, 2462, 2463, 2573, 2572
2441, 2463, 2464, 2574, 2573
2442, 2464, 2465, 2575, 2574
2443, 2465, 2466, 2576, 2575
2444, 2466, 2467, 2577, 2576
2445, 2467, 2468, 2578, 2577
2446, 2468, 2469, 2579, 2578
2447, 2469, 2470, 2580, 2579
2448, 2470, 2471, 2581, 2580
2449, 2471, 2472, 2582, 2581
2450, 2472, 2473, 2583, 2582
2451, 2473, 2474, 2584, 2583
2452, 2474, 2475, 2585, 2584
2453, 2475, 2476, 2586, 2585
2454, 2476, 2477, 2587, 2586
2455, 2477, 2478, 2588, 2587
2456, 2478, 2479, 2589, 2588
2457, 2479, 2480, 2590, 2589
2458, 2480, 2481, 2591, 2590
2459, 2481, 2482, 2592, 2591
2460, 2482, 2483, 2593, 2592
2461, 2483, 2484, 2594, 2593
2462, 2484, 2485, 2595, 2594
2463, 2485, 2486, 2596, 2595
2464, 2486, 2487, 2597, 2596
2465, 2487, 2488, 2598, 2597
2466, 2488, 2489, 2599, 2598
2467, 2489, 2490, 2600, 2599
2468, 2490, 2491, 2601, 2600
2469, 2491, 2492, 2602, 2601
2470, 2492, 2493, 2603, 2602
2471, 2493, 2494, 2604, 2603
2472, 2494, 2495, 2605, 2604
2473, 2495, 2496, 2606, 2605
2474, 2496, 2497, 2607, 2606
2475, 2497, 2498, 2608, 2607
2476, 2498, 2499, 2609, 2608
2477, 2499, 2500, 2610, 2609
2478, 2500, 2501, 2611, 2610
2479, 2501, 2502, 2612, 2611
2480, 2502, 2503, 2613, 2612
2481, 2503, 2504, 2614, 2613
2482, 2504, 2505, 2615, 2614
2483, 2505, 2506, 2616, 2615
2484, 2506, 2507, 2617, 2616
2485, 2507, 2508, 2618, 2617
2486, 2508, 2509, 2619, 2618
2487, 2509, 2510, 2620, 2619
2488, 2510, 2511, 2621, 2620
2489, 2511, 2512, 2622, 2621
2490, 2512, 2513, 2623, 2622
2491, 2513, 2514, 2624, 2623
2492, 2514, 2515, 2625, 2624
2493, 2515, 2516, 2626, 2625
2494, 2516, 2517, 2627, 2626
2495, 2517, 2518, 2628, 2627
2496, 2518, 2519, 2629, 2628
2497, 2519, 2520, 2630, 2629
2498, 2520, 2521, 2631, 2630
2499, 2521, 2522, 2632, 2631
2500, 2522, 2523, 2633, 2632
2501, 2523, 2524, 2634, 2633
2502, 2524, 2525, 2635, 2634
2503, 2525, 2526, 2636, 2635
2504, 2526, 2527, 2637, 2636
2505, 2527, 2528, 2638, 2637
2506, 2528, 2529, 2639, 2638
2507, 2529, 2530, 2640, 2639
2508, 2531, 2532, 2642, 2641
2509, 2532, 2533, 2643, 2642
2510, 2533, 2534, 2644, 2643
2511, 2534, 2535, 2645, 2644
2512, 2535, 2536, 2646, 2645
2513, 2536, 2537, 2647, 2646
2514, 2537, 2538, 2648, 2647
2515, 2538, 2539, 2649, 2648
2516, 2539, 2540, 2650, 2649
2517, 2540, 2541, 2651, 2650
2518, 2541, 2542, 2652, 2651
2519, 2542, 2543, 2653, 2652
2520, 2543, 2544, 2654, 2653
2521, 2544, 2545, 2655, 2654
2522, 2545, 2546, 2656, 2655
2523, 2546, 2547, 2657, 2656
2524, 2547, 2548, 2658, 2657
2525, 2548, 2549, 2659, 2658
2526, 2549, 2550, 2660, 2659
2527, 2550, 2551, 2661, 2660
2528, 2551, 2552, 2662, 2661
2529, 2552, 2553, 2663, 2662
2530, 2553, 2554, 2664, 2663
2531, 2554, 2555, 2665, 2664
2532, 2555, 2556, 2666, 2665
2533, 2556, 2557, 2667, 2666
2534, 2557, 2558, 2668, 2667
2535, 2558, 2559, 2669, 2668
2536, 2559, 2560, 2670, 2669
2537, 2560, 2561, 2671, 2670
2538, 2561, 2562, 2672, 2671
2539, 2562, 2563, 2673, 2672
2540, 2563, 2564, 2674, 2673
2541, 2564, 2565, 2675, 2674
2542, 2565, 2566, 2676, 2675
2543, 2566, 2567, 2677, 2676
2544, 2567, 2568, 2678, 2677
2545, 2568, 2569, 2679, 2678
2546, 2569, 2570, 2680, 2679
2547, 2570, 2571, 2681, 2680
2548, 2571, 2572, 2682, 2681
2549, 2572, 2573, 2683, 2682
2550, 2573, 2574, 2684, 2683
2551, 2574, 2575, 2685, 2684
2552, 2575, 2576, 2686, 2685
2553, 2576, 2577, 2687, 2686
2554, 2577, 2578, 2688, 2687
2555, 2578, 2579, 2689, 2688
2556, 2579, 2580, 2690, 2689
2557, 2580, 2581, 2691, 2690
2558, 2581, 2582, 2692, 2691
2559, 2582, 2583, 2693, 2692
2560, 2583, 2584, 2694, 2693
2561, 2584, 2585, 2695, 2694
2562, 2585, 2586, 2696, 2695
2563, 2586, 2587, 2697, 2696
2564, 2587, 2588, 2698, 2697
2565, 2588, 2589, 2699, 2698
2566, 2589, 2590, 2700, 2699
2567, 2590, 2591, 2701, 2700
2568, 2591, 2592, 2702, 2701
2569, 2592, 2593, 2703, 2702
2570, 2593, 2594, 2704, 2703
2571, 2594, 2595, 2705, 2704
2572, 2595, 2596, 2706, 2705
2573, 2596, 2597, 2707, 2706
2574, 2597, 2598, 2708, 2707
2575, 2598, 2599, 2709, 2708
2576, 2599, 2600, 2710, 2709
2577, 2600, 2601, 2711, 2710
2578, 2601, 2602, 2712, 2711
2579, 2602, 2603, 2713, 2712
2580, 2603, 2604, 2714, 2713
2581, 2604, 2605, 2715, 2714
2582, 2605, 2606, 2716, 2715
2583, 2606, 2607, 2717, 2716
2584, 2607, 2608, 2718, 2717
2585, 2608, 2609, 2719, 2718
2586, 2609, 2610, 2720, 2719
2587, 2610, 2611, 2721, 2720
2588, 2611, 2612, 2722, 2721
2589, 2612, 2613, 2723, 2722
2590, 2613, 2614, 2724, 2723
2591, 2614, 2615, 2725, 2724
2592, 2615, 2616, 2726, 2725
2593, 2616, 2617, 2727, 2726
2594, 2617, 2618, 2728, 2727
2595, 2618, 2619, 2729, 2728
2596, 2619, 2620, 2730, 2729
2597, 2620, 2621, 2731, 2730
2598, 2621, 2622, 2732, 2731
2599, 2622, 2623, 2733, 2732
2600, 2623, 2624, 2734, 2733
2601, 2624, 2625, 2735, 2734
2602, 2625, 2626, 2736, 2735
2603, 2626, 2627, 2737, 2736
2604, 2627, 2628, 2738, 2737
2605, 2628, 2629, 2739, 2738
2606, 2629, 2630, 2740, 2739
2607, 2630, 2631, 2741, 2740
2608, 2631, 2632, 2742, 2741
2609, 2632, 2633, 2743, 2742
2610, 2633, 2634, 2744, 2743
2611, 2634, 2635, 2745, 2744
2612, 2635, 2636, 2746, 2745
2613, 2636, 2637, 2747, 2746
2614, 2637, 2638, 2748, 2747
2615, 2638, 2639, 2749, 2748
2616, 2639, 2640, 2750, 2749
2617, 2641, 2642, 2752, 2751
2618, 2642, 2643, 2753, 2752
2619, 2643, 2644, 2754, 2753
2620, 2644, 2645, 2755, 2754
2621, 2645, 2646, 2756, 2755
2622, 2646, 2647, 2757, 2756
2623, 2647, 2648, 2758, 2757
2624, 2648, 2649, 2759, 2758
2625, 2649, 2650, 2760, 2759
2626, 2650, 2651, 2761, 2760
2627, 2651, 2652, 2762, 2761
2628, 2652, 2653, 2763, 2762
2629, 2653, 2654, 2764, 2763
2630, 2654, 2655, 2765, 2764
2631, 2655, 2656, 2766, 2765
2632, 2656, 2657, 2767, 2766
2633, 2657, 2658, 2768, 2767
2634, 2658, 2659, 2769, 2768
2635, 2659, 2660, 2770, 2769
2636, 2660, 2661, 2771, 2770
2637, 2661, 2662, 2772, 2771
2638, 2662, 2663, 2773, 2772
2639, 2663, 2664, 2774, 2773
2640, 2664, 2665, 2775, 2774
2641, 2665, 2666, 2776, 2775
2642, 2666, 2667, 2777, 2776
2643, 2667, 2668, 2778, 2777
2644, 2668, 2669, 2779, 2778
2645, 2669, 2670, 2780, 2779
2646, 2670, 2671, 2781, 2780
2647, 2671, 2672, 2782, 2781
2648, 2672, 2673, 2783, 2782
2649, 2673, 2674, 2784, 2783
2650, 2674, 2675, 2785, 2784
2651, 2675, 2676, 2786, 2785
2652, 2676, 2677, 2787, 2786
2653, 2677, 2678, 2788, 2787
2654, 2678, 2679, 2789, 2788
2655, 2679, 2680, 2790, 2789
2656, 2680, 2681, 2791, 2790
2657, 2681, 2682, 2792, 2791
2658, 2682, 2683, 2793, 2792
2659, 2683, 2684, 2794, 2793
2660, 2684, 2685, 2795, 2794
2661, 2685, 2686, 2796, 2795
2662, 2686, 2687, 2797, 2796
2663, 2687, 2688, 2798, 2797
2664, 2688, 2689, 2799, 2798
2665, 2689, 2690, 2800, 2799
2666, 2690, 2691, 2801, 2800
2667, 2691, 2692, 2802, 2801
2668, 2692, 2693, 2803, 2802
2669, 2693, 2694, 2804, 2803
2670, 2694, 2695, 2805, 2804
2671, 2695, 2696, 2806, 2805
2672, 2696, 2697, 2807, 2806
2673, 2697, 2698, 2808, 2807
2674, 2698, 2699, 2809, 2808
2675, 2699, 2700, 2810, 2809
2676, 2700, 2701, 2811, 2810
2677, 2701, 2702, 2812, 2811
2678, 2702, 2703, 2813, 2812
2679, 2703, 2704, 2814, 2813
2680, 2704, 2705, 2815, 2814
2681, 2705, 2706, 2816, 2815
2682, 2706, 2707, 2817, 2816
2683, 2707, 2708, 2818, 2817
2684, 2708, 2709, 2819, 2818
2685, 2709, 2710, 2820, 2819
2686, 2710, 2711, 2821, 2820
2687, 2711, 2712, 2822, 2821
2688, 2712, 2713, 2823, 2822
2689, 2713, 2714, 2824, 2823
2690, 2714, 2715, 2825, 2824
2691, 2715, 2716, 2826, 2825
2692, 2716, 2717, 2827, 2826
2693, 2717, 2718, 2828, 2827
2694, 2718, 2719, 2829, 2828
2695, 2719, 2720, 2830, 2829
2696, 2720, 2721, 2831, 2830
2697, 2721, 2722, 2832, 2831
2698, 2722, 2723, 2833, 2832
2699, 2723, 2724, 2834, 2833
2700, 2724, 2725, 2835, 2834
2701, 2725, 2726, 2836, 2835
2702, 2726, 2727, 2837, 2836
2703, 2727, 2728, 2838, 2837
2704, 2728, 2729, 2839, 2838
2705, 2729, 2730, 2840, 2839
2706, 2730, 2731, 2841, 2840
2707, 2731, 2732, 2842, 2841
2708, 2732, 2733, 2843, 2842
2709, 2733, 2734, 2844, 2843
2710, 2734, 2735, 2845, 2844
2711, 2735, 2736, 2846, 2845
2712, 2736, 2737, 2847, 2846
2713, 2737, 2738, 2848, 2847
2714, 2738, 2739, 2849, 2848
2715, 2739, 2740, 2850, 2849
2716, 2740, 2741, 2851, 2850
2717, 2741, 2742, 2852, 2851
2718, 2742, 2743, 2853, 2852
2719, 2743, 2744, 2854, 2853
2720, 2744, 2745, 2855, 2854
2721, 2745, 2746, 2856, 2855
2722, 2746, 2747, 2857, 2856
2723, 2747, 2748, 2858, 2857
2724, 2748, 2749, 2859, 2858
2725, 2749, 2750, 2860, 2859
2726, 2751, 2752, 2862, 2861
2727, 2752, 2753, 2863, 2862
2728, 2753, 2754, 2864, 2863
2729, 2754, 2755, 2865, 2864
2730, 2755, 2756, 2866, 2865
2731, 2756, 2757, 2867, 2866
2732, 2757, 2758, 2868, 2867
2733, 2758, 2759, 2869, 2868
2734, 2759, 2760, 2870, 2869
2735, 2760, 2761, 2871, 2870
2736, 2761, 2762, 2872, 2871
2737, 2762, 2763, 2873, 2872
2738, 2763, 2764, 2874, 2873
2739, 2764, 2765, 2875, 2874
2740, 2765, 2766, 2876, 2875
2741, 2766, 2767, 2877, 2876
2742, 2767, 2768, 2878, 2877
2743, 2768, 2769, 2879, 2878
2744, 2769, 2770, 2880, 2879
2745, 2770, 2771, 2881, 2880
2746, 2771, 2772, 2882, 2881
2747, 2772, 2773, 2883, 2882
2748, 2773, 2774, 2884, 2883
2749, 2774, 2775, 2885, 2884
2750, 2775, 2776, 2886, 2885
2751, 2776, 2777, 2887, 2886
2752, 2777, 2778, 2888, 2887
2753, 2778, 2779, 2889, 2888
2754, 2779, 2780, 2890, 2889
2755, 2780, 2781, 2891, 2890
2756, 2781, 2782, 2892, 2891
2757, 2782, 2783, 2893, 2892
2758, 2783, 2784, 2894, 2893
2759, 2784, 2785, 2895, 2894
2760, 2785, 2786, 2896, 2895
2761, 2786, 2787, 2897, 2896
2762, 2787, 2788, 2898, 2897
2763, 2788, 2789, 2899, 2898
2764, 2789, 2790, 2900, 2899
2765, 2790, 2791, 2901, 2900
2766, 2791, 2792, 2902, 2901
2767, 2792, 2793, 2903, 2902
2768, 2793, 2794, 2904, 2903
2769, 2794, 2795, 2905, 2904
2770, 2795, 2796, 2906, 2905
2771, 2796, 2797, 2907, 2906
2772, 2797, 2798, 2908, 2907
2773, 2798, 2799, 2909, 2908
2774, 2799, 2800, 2910, 2909
2775, 2800, 2801, 2911, 2910
2776, 2801, 2802, 2912, 2911
2777, 2802, 2803, 2913, 2912
2778, 2803, 2804, 2914, 2913
2779, 2804, 2805, 2915, 2914
2780, 2805, 2806, 2916, 2915
2781, 2806, 2807, 2917, 2916
2782, 2807, 2808, 2918, 2917
2783, 2808, 2809, 2919, 2918
2784, 2809, 2810, 2920, 2919
2785, 2810, 2811, 2921, 2920
2786, 2811, 2812, 2922, 2921
2787, 2812, 2813, 2923, 2922
2788, 2813, 2814, 2924, 2923
2789, 2814, 2815, 2925, 2924
2790, 2815, 2816, 2926, 2925
2791, 2816, 2817, 2927, 2926
2792, 2817, 2818, 2928, 2927
2793, 2818, 2819, 2929, 2928
2794, 2819, 2820, 2930, 2929
2795, 2820, 2821, 2931, 2930
2796, 2821, 2822, 2932, 2931
2797, 2822, 2823, 2933, 2932
2798, 2823, 2824, 2934, 2933
2799, 2824, 2825, 2935, 2934
2800, 2825, 2826, 2936, 2935
2801, 2826, 2827, 2937, 2936
2802, 2827, 2828, 2938, 2937
2803, 2828, 2829, 2939, 2938
2804, 2829, 2830, 2940, 2939
2805, 2830, 2831, 2941, 2940
2806, 2831, 2832, 2942, 2941
2807, 2832, 2833, 2943, 2942
2808, 2833, 2834, 2944, 2943
2809, 2834, 2835, 2945, 2944
2810, 2835, 2836, 2946, 2945
2811, 2836, 2837, 2947, 2946
2812, 2837, 2838, 2948, 2947
2813, 2838, 2839, 2949, 2948
2814, 2839, 2840, 2950, 2949
2815, 2840, 2841, 2951, 2950
2816, 2841, 2842, 2952, 2951
2817, 2842, 2843, 2953, 2952
2818, 2843, 2844, 2954, 2953
2819, 2844, 2845, 2955, 2954
2820, 2845, 2846, 2956, 2955
2821, 2846, 2847, 2957, 2956
2822, 2847, 2848, 2958, 2957
2823, 2848, 2849, 2959, 2958
2824, 2849, 2850, 2960, 2959
2825, 2850, 2851, 2961, 2960
2826, 2851, 2852, 2962, 2961
2827, 2852, 2853, 2963, 2962
2828, 2853, 2854, 2964, 2963
2829, 2854, 2855, 2965, 2964
2830, 2855, 2856, 2966, 2965
2831, 2856, 2857, 2967, 2966
2832, 2857, 2858, 2968, 2967
2833, 2858, 2859, 2969, 2968
2834, 2859, 2860, 2970, 2969
2835, 2861, 2862, 2972, 2971
2836, 2862, 2863, 2973, 2972
2837, 2863, 2864, 2974, 2973
2838, 2864, 2865, 2975, 2974
2839, 2865, 2866, 2976, 2975
2840, 2866, 2867, 2977, 2976
2841, 2867, 2868, 2978, 2977
2842, 2868, 2869, 2979, 2978
2843, 2869, 2870, 2980, 2979
2844, 2870, 2871, 2981, 2980
2845, 2871, 2872, 2982, 2981
2846, 2872, 2873, 2983, 2982
2847, 2873, 2874, 2984, 2983
2848, 2874, 2875, 2985, 2984
2849, 2875, 2876, 2986, 2985
2850, 2876, 2877, 2987, 2986
2851, 2877, 2878, 2988, 2987
2852, 2878, 2879, 2989, 2988
2853, 2879, 2880, 2990, 2989
2854, 2880, 2881, 2991, 2990
2855, 2881, 2882, 2992, 2991
2856, 2882, 2883, 2993, 2992
2857, 2883, 2884, 2994, 2993
2858, 2884, 2885, 2995, 2994
2859, 2885, 2886, 2996, 2995
2860, 2886, 2887, 2997, 2996
2861, 2887, 2888, 2998, 2997
2862, 2888, 2889, 2999, 2998
2863, 2889, 2890, 3000, 2999
2864, 2890, 2891, 3001, 3000
2865, 2891, 2892, 3002, 3001
2866, 2892, 2893, 3003, 3002
2867, 2893, 2894, 3004, 3003
2868, 2894, 2895, 3005, 3004
2869, 2895, 2896, 3006, 3005
2870, 2896, 2897, 3007, 3006
2871, 2897, 2898, 3008, 3007
2872, 2898, 2899, 3009, 3008
2873, 2899, 2900, 3010, 3009
2874, 2900, 2901, 3011, 3010
2875, 2901, 2902, 3012, 3011
2876, 2902, 2903, 3013, 3012
2877, 2903, 2904, 3014, 3013
2878, 2904, 2905, 3015, 3014
2879, 2905, 2906, 3016, 3015
2880, 2906, 2907, 3017, 3016
2881, 2907, 2908, 3018, 3017
2882, 2908, 2909, 3019, 3018
2883, 2909, 2910, 3020, 3019
2884, 2910, 2911, 3021, 3020
2885, 2911, 2912, 3022, 3021
2886, 2912, 2913, 3023, 3022
2887, 2913, 2914, 3024, 3023
2888, 2914, 2915, 3025, 3024
2889, 2915, 2916, 3026, 3025
2890, 2916, 2917, 3027, 3026
2891, 2917, 2918, 3028, 3027
2892, 2918, 2919, 3029, 3028
2893, 2919, 2920, 3030, 3029
2894, 2920, 2921, 3031, 3030
2895, 2921, 2922, 3032, 3031
2896, 2922, 2923, 3033, 3032
2897, 2923, 2924, 3034, 3033
2898, 2924, 2925, 3035, 3034
2899, 2925, 2926, 3036, 3035
2900, 2926, 2927, 3037, 3036
2901, 2927, 2928, 3038, 3037
2902, 2928, 2929, 3039, 3038
2903, 2929, 2930, 3040, 3039
2904, 2930, 2931, 3041, 3040
2905, 2931, 2932, 3042, 3041
2906, 2932, 2933, 3043, 3042
2907, 2933, 2934, 3044, 3043
2908, 2934, 2935, 3045, 3044
2909, 2935, 2936, 3046, 3045
2910, 2936, 2937, 3047, 3046
2911, 2937, 2938, 3048, 3047
2912, 2938, 2939, 3049, 3048
2913, 2939, 2940, 3050, 3049
2914, 2940, 2941, 3051, 3050
2915, 2941, 2942, 3052, 3051
2916, 2942, 2943, 3053, 3052
2917, 2943, 2944, 3054, 3053
2918, 2944, 2945, 3055, 3054
2919, 2945, 2946, 3056, 3055
2920, 2946, 2947, 3057, 3056
2921, 2947, 2948, 3058, 3057
2922, 2948, 2949, 3059, 3058
2923, 2949, 2950, 3060, 3059
2924, 2950, 2951, 3061, 3060
2925, 2951, 2952, 3062, 3061
2926, 2952, 2953, 3063, 3062
2927, 2953, 2954, 3064, 3063
2928, 2954, 2955, 3065, 3064
2929, 2955, 2956, 3066, 3065
2930, 2956, 2957, 3067, 3066
2931, 2957, 2958, 3068, 3067
2932, 2958, 2959, 3069, 3068
2933, 2959, 2960, 3070, 3069
2934, 2960, 2961, 3071, 3070
2935, 2961, 2962, 3072, 3071
2936, 2962, 2963, 3073, 3072
2937, 2963, 2964, 3074, 3073
2938, 2964, 2965, 3075, 3074
2939, 2965, 2966, 3076, 3075
2940, 2966, 2967, 3077, 3076
2941, 2967, 2968, 3078, 3077
2942, 2968, 2969, 3079, 3078
2943, 2969, 2970, 3080, 3079
2944, 2971, 2972, 3082, 3081
2945, 2972, 2973, 3083, 3082
2946, 2973, 2974, 3084, 3083
2947, 2974, 2975, 3085, 3084
2948, 2975, 2976, 3086, 3085
2949, 2976, 2977, 3087, 3086
2950, 2977, 2978, 3088, 3087
2951, 2978, 2979, 3089, 3088
2952, 2979, 2980, 3090, 3089
2953, 2980, 2981, 3091, 3090
2954, 2981, 2982, 3092, 3091
2955, 2982, 2983, 3093, 3092
2956, 2983, 2984, 3094, 3093
2957, 2984, 2985, 3095, 3094
2958, 2985, 2986, 3096, 3095
2959, 2986, 2987, 3097, 3096
2960, 2987, 2988, 3098, 3097
2961, 2988, 2989, 3099, 3098
2962, 2989, 2990, 3100, 3099
2963, 2990, 2991, 3101, 3100
2964, 2991, 2992, 3102, 3101
2965, 2992, 2993, 3103, 3102
2966, 2993, 2994, 3104, 3103
2967, 2994, 2995, 3105, 3104
2968, 2995, 2996, 3106, 3105
2969, 2996, 2997, 3107, 3106
2970, 2997, 2998, 3108, 3107
2971, 2998, 2999, 3109, 3108
2972, 2999, 3000, 3110, 3109
2973, 3000, 3001, 3111, 3110
2974, 3001, 3002, 3112, 3111
2975, 3002, 3003, 3113, 3112
2976, 3003, 3004, 3114, 3113
2977, 3004, 3005, 3115, 3114
2978, 3005, 3006, 3116, 3115
2979, 3006, 3007, 3117, 3116
2980, 3007, 3008, 3118, 3117
2981, 3008, 3009, 3119, 3118
2982, 3009, 3010, 3120, 3119
2983, 3010, 3011, 3121, 3120
2984, 3011, 3012, 3122, 3121
2985, 3012, 3013, 3123, 3122
2986, 3013, 3014, 3124, 3123
2987, 3014, 3015, 3125, 3124
2988, 3015, 3016, 3126, 3125
2989, 3016, 3017, 3127, 3126
2990, 3017, 3018, 3128, 3127
2991, 3018, 3019, 3129, 3128
2992, 3019, 3020, 3130, 3129
2993, 3020, 3021, 3131, 3130
2994, 3021, 3022, 3132, 3131
2995, 3022, 3023, 3133, 3132
2996, 3023, 3024, 3134, 3133
2997, 3024, 3025, 3135, 3134
2998, 3025, 3026, 3136, 3135
2999, 3026, 3027, 3137, 3136
3000, 3027, 3028, 3138, 3137
3001, 3028, 3029, 3139, 3138
3002, 3029, 3030, 3140, 3139
3003, 3030, 3031, 3141, 3140
3004, 3031, 3032, 3142, 3141
3005, 3032, 3033, 3143, 3142
3006, 3033, 3034, 3144, 3143
3007, 3034, 3035, 3145, 3144
3008, 3035, 3036, 3146, 3145
3009, 3036, 3037, 3147, 3146
3010, 3037, 3038, 3148, 3147
3011, 3038, 3039, 3149, 3148
3012, 3039, 3040, 3150, 3149
3013, 3040, 3041, 3151, 3150
3014, 3041, 3042, 3152, 3151
3015, 3042, 3043, 3153, 3152
3016, 3043, 3044, 3154, 3153
3017, 3044, 3045, 3155, 3154
3018, 3045, 3046, 3156, 3155
3019, 3046, 3047, 3157, 3156
3020, 3047, 3048, 3158, 3157
3021, 3048, 3049, 3159, 3158
3022, 3049, 3050, 3160, 3159
3023, 3050, 3051, 3161, 3160
3024, 3051, 3052, 3162, 3161
3025, 3052, 3053, 3163, 3162
3026, 3053, 3054, 3164, 3163
3027, 3054, 3055, 3165, 3164
3028, 3055, 3056, 3166, 3165
3029, 3056, 3057, 3167, 3166
3030, 3057, 3058, 3168, 3167
3031, 3058, 3059, 3169, 3168
3032, 3059, 3060, 3170, 3169
3033, 3060, 3061, 3171, 3170
3034, 3061, 3062, 3172, 3171
3035, 3062, 3063, 3173, 3172
3036, 3063, 3064, 3174, 3173
3037, 3064, 3065, 3175, 3174
3038, 3065, 3066, 3176, 3175
3039, 3066, 3067, 3177, 3176
3040, 3067, 3068, 3178, 3177
3041, 3068, 3069, 3179, 3178
3042, 3069, 3070, 3180, 3179
3043, 3070, 3071, 3181, 3180
3044, 3071, 3072, 3182, 3181
3045, 3072, 3073, 3183, 3182
3046, 3073, 3074, 3184, 3183
3047, 3074, 3075, 3185, 3184
3048, 3075, 3076, 3186, 3185
3049, 3076, 3077, 3187, 3186
3050, 3077, 3078, 3188, 3187
3051, 3078, 3079, 3189, 3188
3052, 3079, 3080, 3190, 3189
3053, 3081, 3082, 3192, 3191
3054, 3082, 3083, 3193, 3192
3055, 3083, 3084, 3194, 3193
3056, 3084, 3085, 3195, 3194
3057, 3085, 3086, 3196, 3195
3058, 3086, 3087, 3197, 3196
3059, 3087, 3088, 3198, 3197
3060, 3088, 3089, 3199, 3198
3061, 3089, 3090, 3200, 3199
3062, 3090, 3091, 3201, 3200
3063, 3091, 3092, 3202, 3201
3064, 3092, 3093, 3203, 3202
3065, 3093, 3094, 3204, 3203
3066, 3094, 3095, 3205, 3204
3067, 3095, 3096, 3206, 3205
3068, 3096, 3097, 3207, 3206
3069, 3097, 3098, 3208, 3207
3070, 3098, 3099, 3209, 3208
3071, 3099, 3100, 3210, 3209
3072, 3100, 3101, 3211, 3210
3073, 3101, 3102, 3212, 3211
3074, 3102, 3103, 3213, 3212
3075, 3103, 3104, 3214, 3213
3076, 3104, 3105, 3215, 3214
3077, 3105, 3106, 3216, 3215
3078, 3106, 3107, 3217, 3216
3079, 3107, 3108, 3218, 3217
3080, 3108, 3109, 3219, 3218
3081, 3109, 3110, 3220, 3219
3082, 3110, 3111, 3221, 3220
3083, 3111, 3112, 3222, 3221
3084, 3112, 3113, 3223, 3222
3085, 3113, 3114, 3224, 3223
3086, 3114, 3115, 3225, 3224
3087, 3115, 3116, 3226, 3225
3088, 3116, 3117, 3227, 3226
3089, 3117, 3118, 3228, 3227
3090, 3118, 3119, 3229, 3228
3091, 3119, 3120, 3230, 3229
3092, 3120, 3121, 3231, 3230
3093, 3121, 3122, 3232, 3231
3094, 3122, 3123, 3233, 3232
3095, 3123, 3124, 3234, 3233
3096, 3124, 3125, 3235, 3234
3097, 3125, 3126, 3236, 3235
3098, 3126, 3127, 3237, 3236
3099, 3127, 3128, 3238, 3237
3100, 3128, 3129, 3239, 3238
3101, 3129, 3130, 3240, 3239
3102, 3130, 3131, 3241, 3240
3103, 3131, 3132, 3242, 3241
3104, 3132, 3133, 3243, 3242
3105, 3133, 3134, 3244, 3243
3106, 3134, 3135, 3245, 3244
3107, 3135, 3136, 3246, 3245
3108, 3136, 3137, 3247, 3246
3109, 3137, 3138, 3248, 3247
3110, 3138, 3139, 3249, 3248
3111, 3139, 3140, 3250, 3249
3112, 3140, 3141, 3251, 3250
3113, 3141, 3142, 3252, 3251
3114, 3142, 3143, 3253, 3252
3115, 3143, 3144, 3254, 3253
3116, 3144, 3145, 3255, 3254
3117, 3145, 3146, 3256, 3255
3118, 3146, 3147, 3257, 3256
3119, 3147, 3148, 3258, 3257
3120, 3148, 3149, 3259, 3258
3121, 3149, 3150, 3260, 3259
3122, 3150, 3151, 3261, 3260
3123, 3151, 3152, 3262, 3261
3124, 3152, 3153, 3263, 3262
3125, 3153, 3154, 3264, 3263
3126, 3154, 3155, 3265, 3264
3127, 3155, 3156, 3266, 3265
3128, 3156, 3157, 3267, 3266
3129, 3157, 3158, 3268, 3267
3130, 3158, 3159, 3269, 3268
3131, 3159, 3160, 3270, 3269
3132, 3160, 3161, 3271, 3270
3133, 3161, 3162, 3272, 3271
3134, 3162, 3163, 3273, 3272
3135, 3163, 3164, 3274, 3273
3136, 3164, 3165, 3275, 3274
3137, 3165, 3166, 3276, 3275
3138, 3166, 3167, 3277, 3276
3139, 3167, 3168, 3278, 3277
3140, 3168, 3169, 3279, 3278
3141, 3169, 3170, 3280, 3279
3142, 3170, 3171, 3281, 3280
3143, 3171, 3172, 3282, 3281
3144, 3172, 3173, 3283, 3282
3145, 3173, 3174, 3284, 3283
3146, 3174, 3175, 3285, 3284
3147, 3175, 3176, 3286, 3285
3148, 3176, 3177, 3287, 3286
3149, 3177, 3178, 3288, 3287
3150, 3178, 3179, 3289, 3288
3151, 3179, 3180, 3290, 3289
3152, 3180, 3181, 3291, 3290
3153, 3181, 3182, 3292, 3291
3154, 3182, 3183, 3293, 3292
3155, 3183, 3184, 3294, 3293
3156, 3184, 3185, 3295, 3294
3157, 3185, 3186, 3296, 3295
3158, 3186, 3187, 3297, 3296
3159, 3187, 3188, 3298, 3297
3160, 3188, 3189, 3299, 3298
3161, 3189, 3190, 3300, 3299
3162, 3191, 3192, 3302, 3301
3163, 3192, 3193, 3303, 3302
3164, 3193, 3194, 3304, 3303
3165, 3194, 3195, 3305, 3304
3166, 3195, 3196, 3306, 3305
3167, 3196, 3197, 3307, 3306
3168, 3197, 3198, 3308, 3307
3169, 3198, 3199, 3309, 3308
3170, 3199, 3200, 3310, 3309
3171, 3200, 3201, 3311, 3310
3172, 3201, 3202, 3312, 3311
3173, 3202, 3203, 3313, 3312
3174, 3203, 3204, 3314, 3313
3175, 3204, 3205, 3315, 3314
3176, 3205, 3206, 3316, 3315
3177, 3206, 3207, 3317, 3316
3178, 3207, 3208, 3318, 3317
3179, 3208, 3209, 3319, 3318
3180, 3209, 3210, 3320, 3319
3181, 3210, 3211, 3321, 3320
3182, 3211, 3212, 3322, 3321
3183, 3212, 3213, 3323, 3322
3184, 3213, 3214, 3324, 3323
3185, 3214, 3215, 3325, 3324
3186, 3215, 3216, 3326, 3325
3187, 3216, 3217, 3327, 3326
3188, 3217, 3218, 3328, 3327
3189, 3218, 3219, 3329, 3328
3190, 3219, 3220, 3330, 3329
3191, 3220, 3221, 3331, 3330
3192, 3221, 3222, 3332, 3331
3193, 3222, 3223, 3333, 3332
3194, 3223, 3224, 3334, 3333
3195, 3224, 3225, 3335, 3334
3196, 3225, 3226, 3336, 3335
3197, 3226, 3227, 3337, 3336
3198, 3227, 3228, 3338, 3337
3199, 3228, 3229, 3339, 3338
3200, 3229, 3230, 3340, 3339
3201, 3230, 3231, 3341, 3340
3202, 3231, 3232, 3342, 3341
3203, 3232, 3233, 3343, 3342
3204, 3233, 3234, 3344, 3343
3205, 3234, 3235, 3345, 3344
3206, 3235, 3236, 3346, 3345
3207, 3236, 3237, 3347, 3346
3208, 3237, 3238, 3348, 3347
3209, 3238, 3239, 3349, 3348
3210, 3239, 3240, 3350, 3349
3211, 3240, 3241, 3351, 3350
3212, 3241, 3242, 3352, 3351
3213, 3242, 3243, 3353, 3352
3214, 3243, 3244, 3354, 3353
3215, 3244, 3245, 3355, 3354
3216, 3245, 3246, 3356, 3355
3217, 3246, 3247, 3357, 3356
3218, 3247, 3248, 3358, 3357
3219, 3248, 3249, 3359, 3358
3220, 3249, 3250, 3360, 3359
3221, 3250, 3251, 3361, 3360
3222, 3251, 3252, 3362, 3361
3223, 3252, 3253, 3363, 3362
3224, 3253, 3254, 3364, 3363
3225, 3254, 3255, 3365, 3364
3226, 3255, 3256, 3366, 3365
3227, 3256, 3257, 3367, 3366
3228, 3257, 3258, 3368, 3367
3229, 3258, 3259, 3369, 3368
3230, 3259, 3260, 3370, 3369
3231, 3260, 3261, 3371, 3370
3232, 3261, 3262, 3372, 3371
3233, 3262, 3263, 3373, 3372
3234, 3263, 3264, 3374, 3373
3235, 3264, 3265, 3375, 3374
3236, 3265, 3266, 3376, 3375
3237, 3266, 3267, 3377, 3376
3238, 3267, 3268, 3378, 3377
3239, 3268, 3269, 3379, 3378
3240, 3269, 3270, 3380, 3379
3241, 3270, 3271, 3381, 3380
3242, 3271, 3272, 3382, 3381
3243, 3272, 3273, 3383, 3382
3244, 3273, 3274, 3384, 3383
3245, 3274, 3275, 3385, 3384
3246, 3275, 3276, 3386, 3385
3247, 3276, 3277, 3387, 3386
3248, 3277, 3278, 3388, 3387
3249, 3278, 3279, 3389, 3388
3250, 3279, 3280, 3390, 3389
3251, 3280, 3281, 3391, 3390
3252, 3281, 3282, 3392, 3391
3253, 3282, 3283, 3393, 3392
3254, 3283, 3284, 3394, 3393
3255, 3284, 3285, 3395, 3394
3256, 3285, 3286, 3396, 3395
3257, 3286, 3287, 3397, 3396
3258, 3287, 3288, 3398, 3397
3259, 3288, 3289, 3399, 3398
3260, 3289, 3290, 3400, 3399
3261, 3290, 3291, 3401, 3400
3262, 3291, 3292, 3402, 3401
3263, 3292, 3293, 3403, 3402
3264, 3293, 3294, 3404, 3403
3265, 3294, 3295, 3405, 3404
3266, 3295, 3296, 3406, 3405
3267, 3296, 3297, 3407, 3406
3268, 3297, 3298, 3408, 3407
3269, 3298, 3299, 3409, 3408
3270, 3299, 3300, 3410, 3409
3271, 3301, 3302, 3412, 3411
3272, 3302, 3303, 3413, 3412
3273, 3303, 3304, 3414, 3413
3274, 3304, 3305, 3415, 3414
3275, 3305, 3306, 3416, 3415
3276, 3306, 3307, 3417, 3416
3277, 3307, 3308, 3418, 3417
3278, 3308, 3309, 3419, 3418
3279, 3309, 3310, 3420, 3419
3280, 3310, 3311, 3421, 3420
3281, 3311, 3312, 3422, 3421
3282, 3312, 3313, 3423, 3422
3283, 3313, 3314, 3424, 3423
3284, 3314, 3315, 3425, 3424
3285, 3315, 3316, 3426, 3425
3286, 3316, 3317, 3427, 3426
3287, 3317, 3318, 3428, 3427
3288, 3318, 3319, 3429, 3428
3289, 3319, 3320, 3430, 3429
3290, 3320, 3321, 3431, 3430
3291, 3321, 3322, 3432, 3431
3292, 3322, 3323, 3433, 3432
3293, 3323, 3324, 3434, 3433
3294, 3324, 3325, 3435, 3434
3295, 3325, 3326, 3436, 3435
3296, 3326, 3327, 3437, 3436
3297, 3327, 3328, 3438, 3437
3298, 3328, 3329, 3439, 3438
3299, 3329, 3330, 3440, 3439
3300, 3330, 3331, 3441, 3440
3301, 3331, 3332, 3442, 3441
3302, 3332, 3333, 3443, 3442
3303, 3333, 3334, 3444, 3443
3304, 3334, 3335, 3445, 3444
3305, 3335, 3336, 3446, 3445
3306, 3336, 3337, 3447, 3446
3307, 3337, 3338, 3448, 3447
3308, 3338, 3339, 3449, 3448
3309, 3339, 3340, 3450, 3449
3310, 3340, 3341, 3451, 3450
3311, 3341, 3342, 3452, 3451
3312, 3342, 3343, 3453, 3452
3313, 3343, 3344, 3454, 3453
3314, 3344, 3345, 3455, 3454
3315, 3345, 3346, 3456, 3455
3316, 3346, 3347, 3457, 3456
3317, 3347, 3348, 3458, 3457
3318, 3348, 3349, 3459, 3458
3319, 3349, 3350, 3460, 3459
3320, 3350, 3351, 3461, 3460
3321, 3351, 3352, 3462, 3461
3322, 3352, 3353, 3463, 3462
3323, 3353, 3354, 3464, 3463
3324, 3354, 3355, 3465, 3464
3325, 3355, 3356, 3466, 3465
3326, 3356, 3357, 3467, 3466
3327, 3357, 3358, 3468, 3467
3328, 3358, 3359, 3469, 3468
3329, 3359, 3360, 3470, 3469
3330, 3360, 3361, 3471, 3470
3331, 3361, 3362, 3472, 3471
3332, 3362, 3363, 3473, 3472
3333, 3363, 3364, 3474, 3473
3334, 3364, 3365, 3475, 3474
3335, 3365, 3366, 3476, 3475
3336, 3366, 3367, 3477, 3476
3337, 3367, 3368, 3478, 3477
3338, 3368, 3369, 3479, 3478
3339, 3369, 3370, 3480, 3479
3340, 3370, 3371, 3481, 3480
3341, 3371, 3372, 3482, 3481
3342, 3372, 3373, 3483, 3482
3343, 3373, 3374, 3484, 3483
3344, 3374, 3375, 3485, 3484
3345, 3375, 3376, 3486, 3485
3346, 3376, 3377, 3487, 3486
3347, 3377, 3378, 3488, 3487
3348, 3378, 3379, 3489, 3488
3349, 3379, 3380, 3490, 3489
3350, 3380, 3381, 3491, 3490
3351, 3381, 3382, 3492, 3491
3352, 3382, 3383, 3493, 3492
3353, 3383, 3384, 3494, 3493
3354, 3384, 3385, 3495, 3494
3355, 3385, 3386, 3496, 3495
3356, 3386, 3387, 3497, 3496
3357, 3387, 3388, 3498, 3497
3358, 3388, 3389, 3499, 3498
3359, 3389, 3390, 3500, 3499
3360, 3390, 3391, 3501, 3500
3361, 3391, 3392, 3502, 3501
3362, 3392, 3393, 3503, 3502
3363, 3393, 3394, 3504, 3503
3364, 3394, 3395, 3505, 3504
3365, 3395, 3396, 3506, 3505
3366, 3396, 3397, 3507, 3506
3367, 3397, 3398, 3508, 3507
3368, 3398, 3399, 3509, 3508
3369, 3399, 3400, 3510, 3509
3370, 3400, 3401, 3511, 3510
3371, 3401, 3402, 3512, 3511
3372, 3402, 3403, 3513, 3512
3373, 3403, 3404, 3514, 3513
3374, 3404, 3405, 3515, 3514
3375, 3405, 3406, 3516, 3515
3376, 3406, 3407, 3517, 3516
3377, 3407, 3408, 3518, 3517
3378, 3408, 3409, 3519, 3518
3379, 3409, 3410, 3520, 3519
3380, 3411, 3412, 3522, 3521
3381, 3412, 3413, 3523, 3522
3382, 3413, 3414, 3524, 3523
3383, 3414, 3415, 3525, 3524
3384, 3415, 3416, 3526, 3525
3385, 3416, 3417, 3527, 3526
3386, 3417, 3418, 3528, 3527
3387, 3418, 3419, 3529, 3528
3388, 3419, 3420, 3530, 3529
3389, 3420, 3421, 3531, 3530
3390, 3421, 3422, 3532, 3531
3391, 3422, 3423, 3533, 3532
3392, 3423, 3424, 3534, 3533
3393, 3424, 3425, 3535, 3534
3394, 3425, 3426, 3536, 3535
3395, 3426, 3427, 3537, 3536
3396, 3427, 3428, 3538, 3537
3397, 3428, 3429, 3539, 3538
3398, 3429, 3430, 3540, 3539
3399, 3430, 3431, 3541, 3540
3400, 3431, 3432, 3542, 3541
3401, 3432, 3433, 3543, 3542
3402, 3433, 3434, 3544, 3543
3403, 3434, 3435, 3545, 3544
3404, 3435, 3436, 3546, 3545
3405, 3436, 3437, 3547, 3546
3406, 3437, 3438, 3548, 3547
3407, 3438, 3439, 3549, 3548
3408, 3439, 3440, 3550, 3549
3409, 3440, 3441, 3551, 3550
3410, 3441, 3442, 3552, 3551
3411, 3442, 3443, 3553, 3552
3412, 3443, 3444, 3554, 3553
3413, 3444, 3445, 3555, 3554
3414, 3445, 3446, 3556, 3555
3415, 3446, 3447, 3557, 3556
3416, 3447, 3448, 3558, 3557
3417, 3448, 3449, 3559, 3558
3418, 3449, 3450, 3560, 3559
3419, 3450, 3451, 3561, 3560
3420, 3451, 3452, 3562, 3561
3421, 3452, 3453, 3563, 3562
3422, 3453, 3454, 3564, 3563
3423, 3454, 3455, 3565, 3564
3424, 3455, 3456, 3566, 3565
3425, 3456, 3457, 3567, 3566
3426, 3457, 3458, 3568, 3567
3427, 3458, 3459, 3569, 3568
3428, 3459, 3460, 3570, 3569
3429, 3460, 3461, 3571, 3570
3430, 3461, 3462, 3572, 3571
3431, 3462, 3463, 3573, 3572
3432, 3463, 3464, 3574, 3573
3433, 3464, 3465, 3575, 3574
3434, 3465, 3466, 3576, 3575
3435, 3466, 3467, 3577, 3576
3436, 3467, 3468, 3578, 3577
3437, 3468, 3469, 3579, 3578
3438, 3469, 3470, 3580, 3579
3439, 3470, 3471, 3581, 3580
3440, 3471, 3472, 3582, 3581
3441, 3472, 3473, 3583, 3582
3442, 3473, 3474, 3584, 3583
3443, 3474, 3475, 3585, 3584
3444, 3475, 3476, 3586, 3585
3445, 3476, 3477, 3587, 3586
3446, 3477, 3478, 3588, 3587
3447, 3478, 3479, 3589, 3588
3448, 3479, 3480, 3590, 3589
3449, 3480, 3481, 3591, 3590
3450, 3481, 3482, 3592, 3591
3451, 3482, 3483, 3593, 3592
3452, 3483, 3484, 3594, 3593
3453, 3484, 3485, 3595, 3594
3454, 3485, 3486, 3596, 3595
3455, 3486, 3487, 3597, 3596
3456, 3487, 3488, 3598, 3597
3457, 3488, 3489, 3599, 3598
3458, 3489, 3490, 3600, 3599
3459, 3490, 3491, 3601, 3600
3460, 3491, 3492, 3602, 3601
3461, 3492, 3493, 3603, 3602
3462, 3493, 3494, 3604, 3603
3463, 3494, 3495, 3605, 3604
3464, 3495, 3496, 3606, 3605
3465, 3496, 3497, 3607, 3606
3466, 3497, 3498, 3608, 3607
3467, 3498, 3499, 3609, 3608
3468, 3499, 3500, 3610, 3609
3469, 3500, 3501, 3611, 3610
3470, 3501, 3502, 3612, 3611
3471, 3502, 3503, 3613, 3612
3472, 3503, 3504, 3614, 3613
3473, 3504, 3505, 3615, 3614
3474, 3505, 3506, 3616, 3615
3475, 3506, 3507, 3617, 3616
3476, 3507, 3508, 3618, 3617
3477, 3508, 3509, 3619, 3618
3478, 3509, 3510, 3620, 3619
3479, 3510, 3511, 3621, 3620
3480, 3511, 3512, 3622, 3621
3481, 3512, 3513, 3623, 3622
3482, 3513, 3514, 3624, 3623
3483, 3514, 3515, 3625, 3624
3484, 3515, 3516, 3626, 3625
3485, 3516, 3517, 3627, 3626
3486, 3517, 3518, 3628, 3627
3487, 3518, 3519, 3629, 3628
3488, 3519, 3520, 3630, 3629
3489, 3521, 3522, 3632, 3631
3490, 3522, 3523, 3633, 3632
3491, 3523, 3524, 3634, 3633
3492, 3524, 3525, 3635, 3634
3493, 3525, 3526, 3636, 3635
3494, 3526, 3527, 3637, 3636
3495, 3527, 3528, 3638, 3637
3496, 3528, 3529, 3639, 3638
3497, 3529, 3530, 3640, 3639
3498, 3530, 3531, 3641, 3640
3499, 3531, 3532, 3642, 3641
3500, 3532, 3533, 3643, 3642
3501, 3533, 3534, 3644, 3643
3502, 3534, 3535, 3645, 3644
3503, 3535, 3536, 3646, 3645
3504, 3536, 3537, 3647, 3646
3505, 3537, 3538, 3648, 3647
3506, 3538, 3539, 3649, 3648
3507, 3539, 3540, 3650, 3649
3508, 3540, 3541, 3651, 3650
3509, 3541, 3542, 3652, 3651
3510, 3542, 3543, 3653, 3652
3511, 3543, 3544, 3654, 3653
3512, 3544, 3545, 3655, 3654
3513, 3545, 3546, 3656, 3655
3514, 3546, 3547, 3657, 3656
3515, 3547, 3548, 3658, 3657
3516, 3548, 3549, 3659, 3658
3517, 3549, 3550, 3660, 3659
3518, 3550, 3551, 3661, 3660
3519, 3551, 3552, 3662, 3661
3520, 3552, 3553, 3663, 3662
3521, 3553, 3554, 3664, 3663
3522, 3554, 3555, 3665, 3664
3523, 3555, 3556, 3666, 3665
3524, 3556, 3557, 3667, 3666
3525, 3557, 3558, 3668, 3667
3526, 3558, 3559, 3669, 3668
3527, 3559, 3560, 3670, 3669
3528, 3560, 3561, 3671, 3670
3529, 3561, 3562, 3672, 3671
3530, 3562, 3563, 3673, 3672
3531, 3563, 3564, 3674, 3673
3532, 3564, 3565, 3675, 3674
3533, 3565, 3566, 3676, 3675
3534, 3566, 3567, 3677, 3676
3535, 3567, 3568, 3678, 3677
3536, 3568, 3569, 3679, 3678
3537, 3569, 3570, 3680, 3679
3538, 3570, 3571, 3681, 3680
3539, 3571, 3572, 3682, 3681
3540, 3572, 3573, 3683, 3682
3541, 3573, 3574, 3684, 3683
3542, 3574, 3575, 3685, 3684
3543, 3575, 3576, 3686, 3685
3544, 3576, 3577, 3687, 3686
3545, 3577, 3578, 3688, 3687
3546, 3578, 3579, 3689, 3688
3547, 3579, 3580, 3690, 3689
3548, 3580, 3581, 3691, 3690
3549, 3581, 3582, 3692, 3691
3550, 3582, 3583, 3693, 3692
3551, 3583, 3584, 3694, 3693
3552, 3584, 3585, 3695, 3694
3553, 3585, 3586, 3696, 3695
3554, 3586, 3587, 3697, 3696
3555, 3587, 3588, 3698, 3697
3556, 3588, 3589, 3699, 3698
3557, 3589, 3590, 3700, 3699
3558, 3590, 3591, 3701, 3700
3559, 3591, 3592, 3702, 3701
3560, 3592, 3593, 3703, 3702
3561, 3593, 3594, 3704, 3703
3562, 3594, 3595, 3705, 3704
3563, 3595, 3596, 3706, 3705
3564, 3596, 3597, 3707, 3706
3565, 3597, 3598, 3708, 3707
3566, 3598, 3599, 3709, 3708
3567, 3599, 3600, 3710, 3709
3568, 3600, 3601, 3711, 3710
3569, 3601, 3602, 3712, 3711
3570, 3602, 3603, 3713, 3712
3571, 3603, 3604, 3714, 3713
3572, 3604, 3605, 3715, 3714
3573, 3605, 3606, 3716, 3715
3574, 3606, 3607, 3717, 3716
3575, 3607, 3608, 3718, 3717
3576, 3608, 3609, 3719, 3718
3577, 3609, 3610, 3720, 3719
3578, 3610, 3611, 3721, 3720
3579, 3611, 3612, 3722, 3721
3580, 3612, 3613, 3723, 3722
3581, 3613, 3614, 3724, 3723
3582, 3614, 3615, 3725, 3724
3583, 3615, 3616, 3726, 3725
3584, 3616, 3617, 3727, 3726
3585, 3617, 3618, 3728, 3727
3586, 3618, 3619, 3729, 3728
3587, 3619, 3620, 3730, 3729
3588, 3620, 3621, 3731, 3730
3589, 3621, 3622, 3732, 3731
3590, 3622, 3623, 3733, 3732
3591, 3623, 3624, 3734, 3733
3592, 3624, 3625, 3735, 3734
3593, 3625, 3626, 3736, 3735
3594, 3626, 3627, 3737, 3736
3595, 3627, 3628, 3738, 3737
3596, 3628, 3629, 3739, 3738
3597, 3629, 3630, 3740, 3739
3598, 3631, 3632, 3742, 3741
3599, 3632, 3633, 3743, 3742
3600, 3633, 3634, 3744, 3743
3601, 3634, 3635, 3745, 3744
3602, 3635, 3636, 3746, 3745
3603, 3636, 3637, 3747, 3746
3604, 3637, 3638, 3748, 3747
3605, 3638, 3639, 3749, 3748
3606, 3639, 3640, 3750, 3749
3607, 3640, 3641, 3751, 3750
3608, 3641, 3642, 3752, 3751
3609, 3642, 3643, 3753, 3752
3610, 3643, 3644, 3754, 3753
3611, 3644, 3645, 3755, 3754
3612, 3645, 3646, 3756, 3755
3613, 3646, 3647, 3757, 3756
3614, 3647, 3648, 3758, 3757
3615, 3648, 3649, 3759, 3758
3616, 3649, 3650, 3760, 3759
3617, 3650, 3651, 3761, 3760
3618, 3651, 3652, 3762, 3761
3619, 3652, 3653, 3763, 3762
3620, 3653, 3654, 3764, 3763
3621, 3654, 3655, 3765, 3764
3622, 3655, 3656, 3766, 3765
3623, 3656, 3657, 3767, 3766
3624, 3657, 3658, 3768, 3767
3625, 3658, 3659, 3769, 3768
3626, 3659, 3660, 3770, 3769
3627, 3660, 3661, 3771, 3770
3628, 3661, 3662, 3772, 3771
3629, 3662, 3663, 3773, 3772
3630, 3663, 3664, 3774, 3773
3631, 3664, 3665, 3775, 3774
3632, 3665, 3666, 3776, 3775
3633, 3666, 3667, 3777, 3776
3634, 3667, 3668, 3778, 3777
3635, 3668, 3669, 3779, 3778
3636, 3669, 3670, 3780, 3779
3637, 3670, 3671, 3781, 3780
3638, 3671, 3672, 3782, 3781
3639, 3672, 3673, 3783, 3782
3640, 3673, 3674, 3784, 3783
3641, 3674, 3675, 3785, 3784
3642, 3675, 3676, 3786, 3785
3643, 3676, 3677, 3787, 3786
3644, 3677, 3678, 3788, 3787
3645, 3678, 3679, 3789, 3788
3646, 3679, 3680, 3790, 3789
3647, 3680, 3681, 3791, 3790
3648, 3681, 3682, 3792, 3791
3649, 3682, 3683, 3793, 3792
3650, 3683, 3684, 3794, 3793
3651, 3684, 3685, 3795, 3794
3652, 3685, 3686, 3796, 3795
3653, 3686, 3687, 3797, 3796
3654, 3687, 3688, 3798, 3797
3655, 3688, 3689, 3799, 3798
3656, 3689, 3690, 3800, 3799
3657, 3690, 3691, 3801, 3800
3658, 3691, 3692, 3802, 3801
3659, 3692, 3693, 3803, 3802
3660, 3693, 3694, 3804, 3803
3661, 3694, 3695, 3805, 3804
3662, 3695, 3696, 3806, 3805
3663, 3696, 3697, 3807, 3806
3664, 3697, 3698, 3808, 3807
3665, 3698, 3699, 3809, 3808
3666, 3699, 3700, 3810, 3809
3667, 3700, 3701, 3811, 3810
3668, 3701, 3702, 3812, 3811
3669, 3702, 3703, 3813, 3812
3670, 3703, 3704, 3814, 3813
3671, 3704, 3705, 3815, 3814
3672, 3705, 3706, 3816, 3815
3673, 3706, 3707, 3817, 3816
3674, 3707, 3708, 3818, 3817
3675, 3708, 3709, 3819, 3818
3676, 3709, 3710, 3820, 3819
3677, 3710, 3711, 3821, 3820
3678, 3711, 3712, 3822, 3821
3679, 3712, 3713, 3823, 3822
3680, 3713, 3714, 3824, 3823
3681, 3714, 3715, 3825, 3824
3682, 3715, 3716, 3826, 3825
3683, 3716, 3717, 3827, 3826
3684, 3717, 3718, 3828, 3827
3685, 3718, 3719, 3829, 3828
3686, 3719, 3720, 3830, 3829
3687, 3720, 3721, 3831, 3830
3688, 3721, 3722, 3832, 3831
3689, 3722, 3723, 3833, 3832
3690, 3723, 3724, 3834, 3833
3691, 3724, 3725, 3835, 3834
3692, 3725, 3726, 3836, 3835
3693, 3726, 3727, 3837, 3836
3694, 3727, 3728, 3838, 3837
3695, 3728, 3729, 3839, 3838
3696, 3729, 3730, 3840, 3839
3697, 3730, 3731, 3841, 3840
3698, 3731, 3732, 3842, 3841
3699, 3732, 3733, 3843, 3842
3700, 3733, 3734, 3844, 3843
3701, 3734, 3735, 3845, 3844
3702, 3735, 3736, 3846, 3845
3703, 3736, 3737, 3847, 3846
3704, 3737, 3738, 3848, 3847
3705, 3738, 3739, 3849, 3848
3706, 3739, 3740, 3850, 3849
3707, 3741, 3742, 3852, 3851
3708, 3742, 3743, 3853, 3852
3709, 3743, 3744, 3854, 3853
3710, 3744, 3745, 3855, 3854
3711, 3745, 3746, 3856, 3855
3712, 3746, 3747, 3857, 3856
3713, 3747, 3748, 3858, 3857
3714, 3748, 3749, 3859, 3858
3715, 3749, 3750, 3860, 3859
3716, 3750, 3751, 3861, 3860
3717, 3751, 3752, 3862, 3861
3718, 3752, 3753, 3863, 3862
3719, 3753, 3754, 3864, 3863
3720, 3754, 3755, 3865, 3864
3721, 3755, 3756, 3866, 3865
3722, 3756, 3757, 3867, 3866
3723, 3757, 3758, 3868, 3867
3724, 3758, 3759, 3869, 3868
3725, 3759, 3760, 3870, 3869
3726, 3760, 3761, 3871, 3870
3727, 3761, 3762, 3872, 3871
3728, 3762, 3763, 3873, 3872
3729, 3763, 3764, 3874, 3873
3730, 3764, 3765, 3875, 3874
3731, 3765, 3766, 3876, 3875
3732, 3766, 3767, 3877, 3876
3733, 3767, 3768, 3878, 3877
3734, 3768, 3769, 3879, 3878
3735, 3769, 3770, 3880, 3879
3736, 3770, 3771, 3881, 3880
3737, 3771, 3772, 3882, 3881
3738, 3772, 3773, 3883, 3882
3739, 3773, 3774, 3884, 3883
3740, 3774, 3775, 3885, 3884
3741, 3775, 3776, 3886, 3885
3742, 3776, 3777, 3887, 3886
3743, 3777, 3778, 3888, 3887
3744, 3778, 3779, 3889, 3888
3745, 3779, 3780, 3890, 3889
3746, 3780, 3781, 3891, 3890
3747, 3781, 3782, 3892, 3891
3748, 3782, 3783, 3893, 3892
3749, 3783, 3784, 3894, 3893
3750, 3784, 3785, 3895, 3894
3751, 3785, 3786, 3896, 3895
3752, 3786, 3787, 3897, 3896
3753, 3787, 3788, 3898, 3897
3754, 3788, 3789, 3899, 3898
3755, 3789, 3790, 3900, 3899
3756, 3790, 3791, 3901, 3900
3757, 3791, 3792, 3902, 3901
3758, 3792, 3793, 3903, 3902
3759, 3793, 3794, 3904, 3903
3760, 3794, 3795, 3905, 3904
3761, 3795, 3796, 3906, 3905
3762, 3796, 3797, 3907, 3906
3763, 3797, 3798, 3908, 3907
3764, 3798, 3799, 3909, 3908
3765, 3799, 3800, 3910, 3909
3766, 3800, 3801, 3911, 3910
3767, 3801, 3802, 3912, 3911
3768, 3802, 3803, 3913, 3912
3769, 3803, 3804, 3914, 3913
3770, 3804, 3805, 3915, 3914
3771, 3805, 3806, 3916, 3915
3772, 3806, 3807, 3917, 3916
3773, 3807, 3808, 3918, 3917
3774, 3808, 3809, 3919, 3918
3775, 3809, 3810, 3920, 3919
3776, 3810, 3811, 3921, 3920
3777, 3811, 3812, 3922, 3921
3778, 3812, 3813, 3923, 3922
3779, 3813, 3814, 3924, 3923
3780, 3814, 3815, 3925, 3924
3781, 3815, 3816, 3926, 3925
3782, 3816, 3817, 3927, 3926
3783, 3817, 3818, 3928, 3927
3784, 3818, 3819, 3929, 3928
3785, 3819, 3820, 3930, 3929
3786, 3820, 3821, 3931, 3930
3787, 3821, 3822, 3932, 3931
3788, 3822, 3823, 3933, 3932
3789, 3823, 3824, 3934, 3933
3790, 3824, 3825, 3935, 3934
3791, 3825, 3826, 3936, 3935
3792, 3826, 3827, 3937, 3936
3793, 3827, 3828, 3938, 3937
3794, 3828, 3829, 3939, 3938
3795, 3829, 3830, 3940, 3939
3796, 3830, 3831, 3941, 3940
3797, 3831, 3832, 3942, 3941
3798, 3832, 3833, 3943, 3942
3799, 3833, 3834, 3944, 3943
3800, 3834, 3835, 3945, 3944
3801, 3835, 3836, 3946, 3945
3802, 3836, 3837, 3947, 3946
3803, 3837, 3838, 3948, 3947
3804, 3838, 3839, 3949, 3948
3805, 3839, 3840, 3950, 3949
3806, 3840, 3841, 3951, 3950
3807, 3841, 3842, 3952, 3951
3808, 3842, 3843, 3953, 3952
3809, 3843, 3844, 3954, 3953
3810, 3844, 3845, 3955, 3954
3811, 3845, 3846, 3956, 3955
3812, 3846, 3847, 3957, 3956
3813, 3847, 3848, 3958, 3957
3814, 3848, 3849, 3959, 3958
3815, 3849, 3850, 3960, 3959
3816, 3851, 3852, 3962, 3961
3817, 3852, 3853, 3963, 3962
3818, 3853, 3854, 3964, 3963
3819, 3854, 3855, 3965, 3964
3820, 3855, 3856, 3966, 3965
3821, 3856, 3857, 3967, 3966
3822, 3857, 3858, 3968, 3967
3823, 3858, 3859, 3969, 3968
3824, 3859, 3860, 3970, 3969
3825, 3860, 3861, 3971, 3970
3826, 3861, 3862, 3972, 3971
3827, 3862, 3863, 3973, 3972
3828, 3863, 3864, 3974, 3973
3829, 3864, 3865, 3975, 3974
3830, 3865, 3866, 3976, 3975
3831, 3866, 3867, 3977, 3976
3832, 3867, 3868, 3978, 3977
3833, 3868, 3869, 3979, 3978
3834, 3869, 3870, 3980, 3979
3835, 3870, 3871, 3981, 3980
3836, 3871, 3872, 3982, 3981
3837, 3872, 3873, 3983, 3982
3838, 3873, 3874, 3984, 3983
3839, 3874, 3875, 3985, 3984
3840, 3875, 3876, 3986, 3985
3841, 3876, 3877, 3987, 3986
3842, 3877, 3878, 3988, 3987
3843, 3878, 3879, 3989, 3988
3844, 3879, 3880, 3990, 3989
3845, 3880, 3881, 3991, 3990
3846, 3881, 3882, 3992, 3991
3847, 3882, 3883, 3993, 3992
3848, 3883, 3884, 3994, 3993
3849, 3884, 3885, 3995, 3994
3850, 3885, 3886, 3996, 3995
3851, 3886, 3887, 3997, 3996
3852, 3887, 3888, 3998, 3997
3853, 3888, 3889, 3999, 3998
3854, 3889, 3890, 4000, 3999
3855, 3890, 3891, 4001, 4000
3856, 3891, 3892, 4002, 4001
3857, 3892, 3893, 4003, 4002
3858, 3893, 3894, 4004, 4003
3859, 3894, 3895, 4005, 4004
3860, 3895, 3896, 4006, 4005
3861, 3896, 3897, 4007, 4006
3862, 3897, 3898, 4008, 4007
3863, 3898, 3899, 4009, 4008
3864, 3899, 3900, 4010, 4009
3865, 3900, 3901, 4011, 4010
3866, 3901, 3902, 4012, 4011
3867, 3902, 3903, 4013, 4012
3868, 3903, 3904, 4014, 4013
3869, 3904, 3905, 4015, 4014
3870, 3905, 3906, 4016, 4015
3871, 3906, 3907, 4017, 4016
3872, 3907, 3908, 4018, 4017
3873, 3908, 3909, 4019, 4018
3874, 3909, 3910, 4020, 4019
3875, 3910, 3911, 4021, 4020
3876, 3911, 3912, 4022, 4021
3877, 3912, 3913, 4023, 4022
3878, 3913, 3914, 4024, 4023
3879, 3914, 3915, 4025, 4024
3880, 3915, 3916, 4026, 4025
3881, 3916, 3917, 4027, 4026
3882, 3917, 3918, 4028, 4027
3883, 3918, 3919, 4029, 4028
3884, 3919, 3920, 4030, 4029
3885, 3920, 3921, 4031, 4030
3886, 3921, 3922, 4032, 4031
3887, 3922, 3923, 4033, 4032
3888, 3923, 3924, 4034, 4033
3889, 3924, 3925, 4035, 4034
3890, 3925, 3926, 4036, 4035
3891, 3926, 3927, 4037, 4036
3892, 3927, 3928, 4038, 4037
3893, 3928, 3929, 4039, 4038
3894, 3929, 3930, 4040, 4039
3895, 3930, 3931, 4041, 4040
3896, 3931, 3932, 4042, 4041
3897, 3932, 3933, 4043, 4042
3898, 3933, 3934, 4044, 4043
3899, 3934, 3935, 4045, 4044
3900, 3935, 3936, 4046, 4045
3901, 3936, 3937, 4047, 4046
3902, 3937, 3938, 4048, 4047
3903, 3938, 3939, 4049, 4048
3904, 3939, 3940, 4050, 4049
3905, 3940, 3941, 4051, 4050
3906, 3941, 3942, 4052, 4051
3907, 3942, 3943, 4053, 4052
3908, 3943, 3944, 4054, 4053
3909, 3944, 3945, 4055, 4054
3910, 3945, 3946, 4056, 4055
3911, 3946, 3947, 4057, 4056
3912, 3947, 3948, 4058, 4057
3913, 3948, 3949, 4059, 4058
3914, 3949, 3950, 4060, 4059
3915, 3950, 3951, 4061, 4060
3916, 3951, 3952, 4062, 4061
3917, 3952, 3953, 4063, 4062
3918, 3953, 3954, 4064, 4063
3919, 3954, 3955, 4065, 4064
3920, 3955, 3956, 4066, 4065
3921, 3956, 3957, 4067, 4066
3922, 3957, 3958, 4068, 4067
3923, 3958, 3959, 4069, 4068
3924, 3959, 3960, 4070, 4069
*Elset, elset=DESIGN_ELEM
  110,  111,  112,  113,  114,  115,  116,  117,  118,  119,  120,  121,  122,  123,  124,  125
  126,  127,  128,  129,  130,  131,  132,  133,  134,  135,  136,  137,  138,  139,  140,  141
  142,  143,  144,  145,  146,  147,  148,  149,  150,  151,  152,  153,  154,  155,  156,  157
  158,  159,  160,  161,  162,  163,  164,  165,  166,  167,  168,  169,  170,  171,  172,  173
  174,  175,  176,  177,  178,  179,  180,  181,  182,  183,  184,  185,  186,  187,  188,  189
  190,  191,  192,  193,  194,  195,  196,  197,  198,  199,  200,  201,  202,  203,  204,  205
  206,  207,  208,  209,  210,  211,  212,  213,  214,  215,  216,  217,  219,  220,  221,  222
  223,  224,  225,  226,  227,  228,  229,  230,  231,  232,  233,  234,  235,  236,  237,  238
  239,  240,  241,  242,  243,  244,  245,  246,  247,  248,  249,  250,  251,  252,  253,  254
  255,  256,  257,  258,  259,  260,  261,  262,  263,  264,  265,  266,  267,  268,  269,  270
  271,  272,  273,  274,  275,  276,  277,  278,  279,  280,  281,  282,  283,  284,  285,  286
  287,  288,  289,  290,  291,  292,  293,  294,  295,  296,  297,  298,  299,  300,  301,  302
  303,  304,  305,  306,  307,  308,  309,  310,  311,  312,  313,  314,  315,  316,  317,  318
  319,  320,  321,  322,  323,  324,  325,  326,  328,  329,  330,  331,  332,  333,  334,  335
  336,  337,  338,  339,  340,  341,  342,  343,  344,  345,  346,  347,  348,  349,  350,  351
  352,  353,  354,  355,  356,  357,  358,  359,  360,  361,  362,  363,  364,  365,  366,  367
  368,  369,  370,  371,  372,  373,  374,  375,  376,  377,  378,  379,  380,  381,  382,  383
  384,  385,  386,  387,  388,  389,  390,  391,  392,  393,  394,  395,  396,  397,  398,  399
  400,  401,  402,  403,  404,  405,  406,  407,  408,  409,  410,  411,  412,  413,  414,  415
  416,  417,  418,  419,  420,  421,  422,  423,  424,  425,  426,  427,  428,  429,  430,  431
  432,  433,  434,  435,  437,  438,  439,  440,  441,  442,  443,  444,  445,  446,  447,  448
  449,  450,  451,  452,  453,  454,  455,  456,  457,  458,  459,  460,  461,  462,  463,  464
  465,  466,  467,  468,  469,  470,  471,  472,  473,  474,  475,  476,  477,  478,  479,  480
  481,  482,  483,  484,  485,  486,  487,  488,  489,  490,  491,  492,  493,  494,  495,  496
  497,  498,  499,  500,  501,  502,  503,  504,  505,  506,  507,  508,  509,  510,  511,  512
  513,  514,  515,  516,  517,  518,  519,  520,  521,  522,  523,  524,  525,  526,  527,  528
  529,  530,  531,  532,  533,  534,  535,  536,  537,  538,  539,  540,  541,  542,  543,  544
  546,  547,  548,  549,  550,  551,  552,  553,  554,  555,  556,  557,  558,  559,  560,  561
  562,  563,  564,  565,  566,  567,  568,  569,  570,  571,  572,  573,  574,  575,  576,  577
  578,  579,  580,  581,  582,  583,  584,  585,  586,  587,  588,  589,  590,  591,  592,  593
  594,  595,  596,  597,  598,  599,  600,  601,  602,  603,  604,  605,  606,  607,  608,  609
  610,  611,  612,  613,  614,  615,  616,  617,  618,  619,  620,  621,  622,  623,  624,  625
  626,  627,  628,  629,  630,  631,  632,  633,  634,  635,  636,  637,  638,  639,  640,  641
  642,  643,  644,  645,  646,  647,  648,  649,  650,  651,  652,  653,  655,  656,  657,  658
  659,  660,  661,  662,  663,  664,  665,  666,  667,  668,  669,  670,  671,  672,  673,  674
  675,  676,  677,  678,  679,  680,  681,  682,  683,  684,  685,  686,  687,  688,  689,  690
  691,  692,  693,  694,  695,  696,  697,  698,  699,  700,  701,  702,  703,  704,  705,  706
  707,  708,  709,  710,  711,  712,  713,  714,  715,  716,  717,  718,  719,  720,  721,  722
  723,  724,  725,  726,  727,  728,  729,  730,  731,  732,  733,  734,  735,  736,  737,  738
  739,  740,  741,  742,  743,  744,  745,  746,  747,  748,  749,  750,  751,  752,  753,  754
  755,  756,  757,  758,  759,  760,  761,  762,  764,  765,  766,  767,  768,  769,  770,  771
  772,  773,  774,  775,  776,  777,  778,  779,  780,  781,  782,  783,  784,  785,  786,  787
  788,  789,  790,  791,  792,  793,  794,  795,  796,  797,  798,  799,  800,  801,  802,  803
  804,  805,  806,  807,  808,  809,  810,  811,  812,  813,  814,  815,  816,  817,  818,  819
  820,  821,  822,  823,  824,  825,  826,  827,  828,  829,  830,  831,  832,  833,  834,  835
  836,  837,  838,  839,  840,  841,  842,  843,  844,  845,  846,  847,  848,  849,  850,  851
  852,  853,  854,  855,  856,  857,  858,  859,  860,  861,  862,  863,  864,  865,  866,  867
  868,  869,  870,  871,  873,  874,  875,  876,  877,  878,  879,  880,  881,  882,  883,  884
  885,  886,  887,  888,  889,  890,  891,  892,  893,  894,  895,  896,  897,  898,  899,  900
  901,  902,  903,  904,  905,  906,  907,  908,  909,  910,  911,  912,  913,  914,  915,  916
  917,  918,  919,  920,  921,  922,  923,  924,  925,  926,  927,  928,  929,  930,  931,  932
  933,  934,  935,  936,  937,  938,  939,  940,  941,  942,  943,  944,  945,  946,  947,  948
  949,  950,  951,  952,  953,  954,  955,  956,  957,  958,  959,  960,  961,  962,  963,  964
  965,  966,  967,  968,  969,  970,  971,  972,  973,  974,  975,  976,  977,  978,  979,  980
  982,  983,  984,  985,  986,  987,  988,  989,  990,  991,  992,  993,  994,  995,  996,  997
  998,  999, 1000, 1001, 1002, 1003, 1004, 1005, 1006, 1007, 1008, 1009, 1010, 1011, 1012, 1013
 1014, 1015, 1016, 1017, 1018, 1019, 1020, 1021, 1022, 1023, 1024, 1025, 1026, 1027, 1028, 1029
 1030, 1031, 1032, 1033, 1034, 1035, 1036, 1037, 1038, 1039, 1040, 1041, 1042, 1043, 1044, 1045
 1046, 1047, 1048, 1049, 1050, 1051, 1052, 1053, 1054, 1055, 1056, 1057, 1058, 1059, 1060, 1061
 1062, 1063, 1064, 1065, 1066, 1067, 1068, 1069, 1070, 1071, 1072, 1073, 1074, 1075, 1076, 1077
 1078, 1079, 1080, 1081, 1082, 1083, 1084, 1085, 1086, 1087, 1088, 1089, 1091, 1092, 1093, 1094
 1095, 1096, 1097, 1098, 1099, 1100, 1101, 1102, 1103, 1104, 1105, 1106, 1107, 1108, 1109, 1110
 1111, 1112, 1113, 1114, 1115, 1116, 1117, 1118, 1119, 1120, 1121, 1122, 1123, 1124, 1125, 1126
 1127, 1128, 1129, 1130, 1131, 1132, 1133, 1134, 1135, 1136, 1137, 1138, 1139, 1140, 1141, 1142
 1143, 1144, 1145, 1146, 1147, 1148, 1149, 1150, 1151, 1152, 1153, 1154, 1155, 1156, 1157, 1158
 1159, 1160, 1161, 1162, 1163, 1164, 1165, 1166, 1167, 1168, 1169, 1170, 1171, 1172, 1173, 1174
 1175, 1176, 1177, 1178, 1179, 1180, 1181, 1182, 1183, 1184, 1185, 1186, 1187, 1188, 1189, 1190
 1191, 1192, 1193, 1194, 1195, 1196, 1197, 1198, 1200, 1201, 1202, 1203, 1204, 1205, 1206, 1207
 1208, 1209, 1210, 1211, 1212, 1213, 1214, 1215, 1216, 1217, 1218, 1219, 1220, 1221, 1222, 1223
 1224, 1225, 1226, 1227, 1228, 1229, 1230, 1231, 1232, 1233, 1234, 1235, 1236, 1237, 1238, 1239
 1240, 1241, 1242, 1243, 1244, 1245, 1246, 1247, 1248, 1249, 1250, 1251, 1252, 1253, 1254, 1255
 1256, 1257, 1258, 1259, 1260, 1261, 1262, 1263, 1264, 1265, 1266, 1267, 1268, 1269, 1270, 1271
 1272, 1273, 1274, 1275, 1276, 1277, 1278, 1279, 1280, 1281, 1282, 1283, 1284, 1285, 1286, 1287
 1288, 1289, 1290, 1291, 1292, 1293, 1294, 1295, 1296, 1297, 1298, 1299, 1300, 1301, 1302, 1303
 1304, 1305, 1306, 1307, 1309, 1310, 1311, 1312, 1313, 1314, 1315, 1316, 1317, 1318, 1319, 1320
 1321, 1322, 1323, 1324, 1325, 1326, 1327, 1328, 1329, 1330, 1331, 1332, 1333, 1334, 1335, 1336
 1337, 1338, 1339, 1340, 1341, 1342, 1343, 1344, 1345, 1346, 1347, 1348, 1349, 1350, 1351, 1352
 1353, 1354, 1355, 1356, 1357, 1358, 1359, 1360, 1361, 1362, 1363, 1364, 1365, 1366, 1367, 1368
 1369, 1370, 1371, 1372, 1373, 1374, 1375, 1376, 1377, 1378, 1379, 1380, 1381, 1382, 1383, 1384
 1385, 1386, 1387, 1388, 1389, 1390, 1391, 1392, 1393, 1394, 1395, 1396, 1397, 1398, 1399, 1400
 1401, 1402, 1403, 1404, 1405, 1406, 1407, 1408, 1409, 1410, 1411, 1412, 1413, 1414, 1415, 1416
 1418, 1419, 1420, 1421, 1422, 1423, 1424, 1425, 1426, 1427, 1428, 1429, 1430, 1431, 1432, 1433
 1434, 1435, 1436, 1437, 1438, 1439, 1440, 1441, 1442, 1443, 1444, 1445, 1446, 1447, 1448, 1449
 1450, 1451, 1452, 1453, 1454, 1455, 1456, 1457, 1458, 1459, 1460, 1461, 1462, 1463, 1464, 1465
 1466, 1467, 1468, 1469, 1470, 1471, 1472, 1473, 1474, 1475, 1476, 1477, 1478, 1479, 1480, 1481
 1482, 1483, 1484, 1485, 1486, 1487, 1488, 1489, 1490, 1491, 1492, 1493, 1494, 1495, 1496, 1497
 1498, 1499, 1500, 1501, 1502, 1503, 1504, 1505, 1506, 1507, 1508, 1509, 1510, 1511, 1512, 1513
 1514, 1515, 1516, 1517, 1518, 1519, 1520, 1521, 1522, 1523, 1524, 1525, 1527, 1528, 1529, 1530
 1531, 1532, 1533, 1534, 1535, 1536, 1537, 1538, 1539, 1540, 1541, 1542, 1543, 1544, 1545, 1546
 1547, 1548, 1549, 1550, 1551, 1552, 1553, 1554, 1555, 1556, 1557, 1558, 1559, 1560, 1561, 1562
 1563, 1564, 1565, 1566, 1567, 1568, 1569, 1570, 1571, 1572, 1573, 1574, 1575, 1576, 1577, 1578
 1579, 1580, 1581, 1582, 1583, 1584, 1585, 1586, 1587, 1588, 1589, 1590, 1591, 1592, 1593, 1594
 1595, 1596, 1597, 1598, 1599, 1600, 1601, 1602, 1603, 1604, 1605, 1606, 1607, 1608, 1609, 1610
 1611, 1612, 1613, 1614, 1615, 1616, 1617, 1618, 1619, 1620, 1621, 1622, 1623, 1624, 1625, 1626
 1627, 1628, 1629, 1630, 1631, 1632, 1633, 1634, 1636, 1637, 1638, 1639, 1640, 1641, 1642, 1643
 1644, 1645, 1646, 1647, 1648, 1649, 1650, 1651, 1652, 1653, 1654, 1655, 1656, 1657, 1658, 1659
 1660, 1661, 1662, 1663, 1664, 1665, 1666, 1667, 1668, 1669, 1670, 1671, 1672, 1673, 1674, 1675
 1676, 1677, 1678, 1679, 1680, 1681, 1682, 1683, 1684, 1685, 1686, 1687, 1688, 1689, 1690, 1691
 1692, 1693, 1694, 1695, 1696, 1697, 1698, 1699, 1700, 1701, 1702, 1703, 1704, 1705, 1706, 1707
 1708, 1709, 1710, 1711, 1712, 1713, 1714, 1715, 1716, 1717, 1718, 1719, 1720, 1721, 1722, 1723
 1724, 1725, 1726, 1727, 1728, 1729, 1730, 1731, 1732, 1733, 1734, 1735, 1736, 1737, 1738, 1739
 1740, 1741, 1742, 1743, 1745, 1746, 1747, 1748, 1749, 1750, 1751, 1752, 1753, 1754, 1755, 1756
 1757, 1758, 1759, 1760, 1761, 1762, 1763, 1764, 1765, 1766, 1767, 1768, 1769, 1770, 1771, 1772
 1773, 1774, 1775, 1776, 1777, 1778, 1779, 1780, 1781, 1782, 1783, 1784, 1785, 1786, 1787, 1788
 1789, 1790, 1791, 1792, 1793, 1794, 1795, 1796, 1797, 1798, 1799, 1800, 1801, 1802, 1803, 1804
 1805, 1806, 1807, 1808, 1809, 1810, 1811, 1812, 1813, 1814, 1815, 1816, 1817, 1818, 1819, 1820
 1821, 1822, 1823, 1824, 1825, 1826, 1827, 1828, 1829, 1830, 1831, 1832, 1833, 1834, 1835, 1836
 1837, 1838, 1839, 1840, 1841, 1842, 1843, 1844, 1845, 1846, 1847, 1848, 1849, 1850, 1851, 1852
 1854, 1855, 1856, 1857, 1858, 1859, 1860, 1861, 1862, 1863, 1864, 1865, 1866, 1867, 1868, 1869
 1870, 1871, 1872, 1873, 1874, 1875, 1876, 1877, 1878, 1879, 1880, 1881, 1882, 1883, 1884, 1885
 1886, 1887, 1888, 1889, 1890, 1891, 1892, 1893, 1894, 1895, 1896, 1897, 1898, 1899, 1900, 1901
 1902, 1903, 1904, 1905, 1906, 1907, 1908, 1909, 1910, 1911, 1912, 1913, 1914, 1915, 1916, 1917
 1918, 1919, 1920, 1921, 1922, 1923, 1924, 1925, 1926, 1927, 1928, 1929, 1930, 1931, 1932, 1933
 1934, 1935, 1936, 1937, 1938, 1939, 1940, 1941, 1942, 1943, 1944, 1945, 1946, 1947, 1948, 1949
 1950, 1951, 1952, 1953, 1954, 1955, 1956, 1957, 1958, 1959, 1960, 1961, 1963, 1964, 1965, 1966
 1967, 1968, 1969, 1970, 1971, 1972, 1973, 1974, 1975, 1976, 1977, 1978, 1979, 1980, 1981, 1982
 1983, 1984, 1985, 1986, 1987, 1988, 1989, 1990, 1991, 1992, 1993, 1994, 1995, 1996, 1997, 1998
 1999, 2000, 2001, 2002, 2003, 2004, 2005, 2006, 2007, 2008, 2009, 2010, 2011, 2012, 2013, 2014
 2015, 2016, 2017, 2018, 2019, 2020, 2021, 2022, 2023, 2024, 2025, 2026, 2027, 2028, 2029, 2030
 2031, 2032, 2033, 2034, 2035, 2036, 2037, 2038, 2039, 2040, 2041, 2042, 2043, 2044, 2045, 2046
 2047, 2048, 2049, 2050, 2051, 2052, 2053, 2054, 2055, 2056, 2057, 2058, 2059, 2060, 2061, 2062
 2063, 2064, 2065, 2066, 2067, 2068, 2069, 2070, 2072, 2073, 2074, 2075, 2076, 2077, 2078, 2079
 2080, 2081, 2082, 2083, 2084, 2085, 2086, 2087, 2088, 2089, 2090, 2091, 2092, 2093, 2094, 2095
 2096, 2097, 2098, 2099, 2100, 2101, 2102, 2103, 2104, 2105, 2106, 2107, 2108, 2109, 2110, 2111
 2112, 2113, 2114, 2115, 2116, 2117, 2118, 2119, 2120, 2121, 2122, 2123, 2124, 2125, 2126, 2127
 2128, 2129, 2130, 2131, 2132, 2133, 2134, 2135, 2136, 2137, 2138, 2139, 2140, 2141, 2142, 2143
 2144, 2145, 2146, 2147, 2148, 2149, 2150, 2151, 2152, 2153, 2154, 2155, 2156, 2157, 2158, 2159
 2160, 2161, 2162, 2163, 2164, 2165, 2166, 2167, 2168, 2169, 2170, 2171, 2172, 2173, 2174, 2175
 2176, 2177, 2178, 2179, 2181, 2182, 2183, 2184, 2185, 2186, 2187, 2188, 2189, 2190, 2191, 2192
 2193, 2194, 2195, 2196, 2197, 2198, 2199, 2200, 2201, 2202, 2203, 2204, 2205, 2206, 2207, 2208
 2209, 2210, 2211, 2212, 2213, 2214, 2215, 2216, 2217, 2218, 2219, 2220, 2221, 2222, 2223, 2224
 2225, 2226, 2227, 2228, 2229, 2230, 2231, 2232, 2233, 2234, 2235, 2236, 2237, 2238, 2239, 2240
 2241, 2242, 2243, 2244, 2245, 2246, 2247, 2248, 2249, 2250, 2251, 2252, 2253, 2254, 2255, 2256
 2257, 2258, 2259, 2260, 2261, 2262, 2263, 2264, 2265, 2266, 2267, 2268, 2269, 2270, 2271, 2272
 2273, 2274, 2275, 2276, 2277, 2278, 2279, 2280, 2281, 2282, 2283, 2284, 2285, 2286, 2287, 2288
 2290, 2291, 2292, 2293, 2294, 2295, 2296, 2297, 2298, 2299, 2300, 2301, 2302, 2303, 2304, 2305
 2306, 2307, 2308, 2309, 2310, 2311, 2312, 2313, 2314, 2315, 2316, 2317, 2318, 2319, 2320, 2321
 2322, 2323, 2324, 2325, 2326, 2327, 2328, 2329, 2330, 2331, 2332, 2333, 2334, 2335, 2336, 2337
 2338, 2339, 2340, 2341, 2342, 2343, 2344, 2345, 2346, 2347, 2348, 2349, 2350, 2351, 2352, 2353
 2354, 2355, 2356, 2357, 2358, 2359, 2360, 2361, 2362, 2363, 2364, 2365, 2366, 2367, 2368, 2369
 2370, 2371, 2372, 2373, 2374, 2375, 2376, 2377, 2378, 2379, 2380, 2381, 2382, 2383, 2384, 2385
 2386, 2387, 2388, 2389, 2390, 2391, 2392, 2393, 2394, 2395, 2396, 2397, 2399, 2400, 2401, 2402
 2403, 2404, 2405, 2406, 2407, 2408, 2409, 2410, 2411, 2412, 2413, 2414, 2415, 2416, 2417, 2418
 2419, 2420, 2421, 2422, 2423, 2424, 2425, 2426, 2427, 2428, 2429, 2430, 2431, 2432, 2433, 2434
 2435, 2436, 2437, 2438, 2439, 2440, 2441, 2442, 2443, 2444, 2445, 2446, 2447, 2448, 2449, 2450
 2451, 2452, 2453, 2454, 2455, 2456, 2457, 2458, 2459, 2460, 2461, 2462, 2463, 2464, 2465, 2466
 2467, 2468, 2469, 2470, 2471, 2472, 2473, 2474, 2475, 2476, 2477, 2478, 2479, 2480, 2481, 2482
 2483, 2484, 2485, 2486, 2487, 2488, 2489, 2490, 2491, 2492, 2493, 2494, 2495, 2496, 2497, 2498
 2499, 2500, 2501, 2502, 2503, 2504, 2505, 2506, 2508, 2509, 2510, 2511, 2512, 2513, 2514, 2515
 2516, 2517, 2518, 2519, 2520, 2521, 2522, 2523, 2524, 2525, 2526, 2527, 2528, 2529, 2530, 2531
 2532, 2533, 2534, 2535, 2536, 2537, 2538, 2539, 2540, 2541, 2542, 2543, 2544, 2545, 2546, 2547
 2548, 2549, 2550, 2551, 2552, 2553, 2554, 2555, 2556, 2557, 2558, 2559, 2560, 2561, 2562, 2563
 2564, 2565, 2566, 2567, 2568, 2569, 2570, 2571, 2572, 2573, 2574, 2575, 2576, 2577, 2578, 2579
 2580, 2581, 2582, 2583, 2584, 2585, 2586, 2587, 2588, 2589, 2590, 2591, 2592, 2593, 2594, 2595
 2596, 2597, 2598, 2599, 2600, 2601, 2602, 2603, 2604, 2605, 2606, 2607, 2608, 2609, 2610, 2611
 2612, 2613, 2614, 2615, 2617, 2618, 2619, 2620, 2621, 2622, 2623, 2624, 2625, 2626, 2627, 2628
 2629, 2630, 2631, 2632, 2633, 2634, 2635, 2636, 2637, 2638, 2639, 2640, 2641, 2642, 2643, 2644
 2645, 2646, 2647, 2648, 2649, 2650, 2651, 2652, 2653, 2654, 2655, 2656, 2657, 2658, 2659, 2660
 2661, 2662, 2663, 2664, 2665, 2666, 2667, 2668, 2669, 2670, 2671, 2672, 2673, 2674, 2675, 2676
 2677, 2678, 2679, 2680, 2681, 2682, 2683, 2684, 2685, 2686, 2687, 2688, 2689, 2690, 2691, 2692
 2693, 2694, 2695, 2696, 2697, 2698, 2699, 2700, 2701, 2702, 2703, 2704, 2705, 2706, 2707, 2708
 2709, 2710, 2711, 2712, 2713, 2714, 2715, 2716, 2717, 2718, 2719, 2720, 2721, 2722, 2723, 2724
 2726, 2727, 2728, 2729, 2730, 2731, 2732, 2733, 2734, 2735, 2736, 2737, 2738, 2739, 2740, 2741
 2742, 2743, 2744, 2745, 2746, 2747, 2748, 2749, 2750, 2751, 2752, 2753, 2754, 2755, 2756, 2757
 2758, 2759, 2760, 2761, 2762, 2763, 2764, 2765, 2766, 2767, 2768, 2769, 2770, 2771, 2772, 2773
 2774, 2775, 2776, 2777, 2778, 2779, 2780, 2781, 2782, 2783, 2784, 2785, 2786, 2787, 2788, 2789
 2790, 2791, 2792, 2793, 2794, 2795, 2796, 2797, 2798, 2799, 2800, 2801, 2802, 2803, 2804, 2805
 2806, 2807, 2808, 2809, 2810, 2811, 2812, 2813, 2814, 2815, 2816, 2817, 2818, 2819, 2820, 2821
 2822, 2823, 2824, 2825, 2826, 2827, 2828, 2829, 2830, 2831, 2832, 2833, 2835, 2836, 2837, 2838
 2839, 2840, 2841, 2842, 2843, 2844, 2845, 2846, 2847, 2848, 2849, 2850, 2851, 2852, 2853, 2854
 2855, 2856, 2857, 2858, 2859, 2860, 2861, 2862, 2863, 2864, 2865, 2866, 2867, 2868, 2869, 2870
 2871, 2872, 2873, 2874, 2875, 2876, 2877, 2878, 2879, 2880, 2881, 2882, 2883, 2884, 2885, 2886
 2887, 2888, 2889, 2890, 2891, 2892, 2893, 2894, 2895, 2896, 2897, 2898, 2899, 2900, 2901, 2902
 2903, 2904, 2905, 2906, 2907, 2908, 2909, 2910, 2911, 2912, 2913, 2914, 2915, 2916, 2917, 2918
 2919, 2920, 2921, 2922, 2923, 2924, 2925, 2926, 2927, 2928, 2929, 2930, 2931, 2932, 2933, 2934
 2935, 2936, 2937, 2938, 2939, 2940, 2941, 2942, 2944, 2945, 2946, 2947, 2948, 2949, 2950, 2951
 2952, 2953, 2954, 2955, 2956, 2957, 2958, 2959, 2960, 2961, 2962, 2963, 2964, 2965, 2966, 2967
 2968, 2969, 2970, 2971, 2972, 2973, 2974, 2975, 2976, 2977, 2978, 2979, 2980, 2981, 2982, 2983
 2984, 2985, 2986, 2987, 2988, 2989, 2990, 2991, 2992, 2993, 2994, 2995, 2996, 2997, 2998, 2999
 3000, 3001, 3002, 3003, 3004, 3005, 3006, 3007, 3008, 3009, 3010, 3011, 3012, 3013, 3014, 3015
 3016, 3017, 3018, 3019, 3020, 3021, 3022, 3023, 3024, 3025, 3026, 3027, 3028, 3029, 3030, 3031
 3032, 3033, 3034, 3035, 3036, 3037, 3038, 3039, 3040, 3041, 3042, 3043, 3044, 3045, 3046, 3047
 3048, 3049, 3050, 3051, 3053, 3054, 3055, 3056, 3057, 3058, 3059, 3060, 3061, 3062, 3063, 3064
 3065, 3066, 3067, 3068, 3069, 3070, 3071, 3072, 3073, 3074, 3075, 3076, 3077, 3078, 3079, 3080
 3081, 3082, 3083, 3084, 3085, 3086, 3087, 3088, 3089, 3090, 3091, 3092, 3093, 3094, 3095, 3096
 3097, 3098, 3099, 3100, 3101, 3102, 3103, 3104, 3105, 3106, 3107, 3108, 3109, 3110, 3111, 3112
 3113, 3114, 3115, 3116, 3117, 3118, 3119, 3120, 3121, 3122, 3123, 3124, 3125, 3126, 3127, 3128
 3129, 3130, 3131, 3132, 3133, 3134, 3135, 3136, 3137, 3138, 3139, 3140, 3141, 3142, 3143, 3144
 3145, 3146, 3147, 3148, 3149, 3150, 3151, 3152, 3153, 3154, 3155, 3156, 3157, 3158, 3159, 3160
 3162, 3163, 3164, 3165, 3166, 3167, 3168, 3169, 3170, 3171, 3172, 3173, 3174, 3175, 3176, 3177
 3178, 3179, 3180, 3181, 3182, 3183, 3184, 3185, 3186, 3187, 3188, 3189, 3190, 3191, 3192, 3193
 3194, 3195, 3196, 3197, 3198, 3199, 3200, 3201, 3202, 3203, 3204, 3205, 3206, 3207, 3208, 3209
 3210, 3211, 3212, 3213, 3214, 3215, 3216, 3217, 3218, 3219, 3220, 3221, 3222, 3223, 3224, 3225
 3226, 3227, 3228, 3229, 3230, 3231, 3232, 3233, 3234, 3235, 3236, 3237, 3238, 3239, 3240, 3241
 3242, 3243, 3244, 3245, 3246, 3247, 3248, 3249, 3250, 3251, 3252, 3253, 3254, 3255, 3256, 3257
 3258, 3259, 3260, 3261, 3262, 3263, 3264, 3265, 3266, 3267, 3268, 3269, 3271, 3272, 3273, 3274
 3275, 3276, 3277, 3278, 3279, 3280, 3281, 3282, 3283, 3284, 3285, 3286, 3287, 3288, 3289, 3290
 3291, 3292, 3293, 3294, 3295, 3296, 3297, 3298, 3299, 3300, 3301, 3302, 3303, 3304, 3305, 3306
 3307, 3308, 3309, 3310, 3311, 3312, 3313, 3314, 3315, 3316, 3317, 3318, 3319, 3320, 3321, 3322
 3323, 3324, 3325, 3326, 3327, 3328, 3329, 3330, 3331, 3332, 3333, 3334, 3335, 3336, 3337, 3338
 3339, 3340, 3341, 3342, 3343, 3344, 3345, 3346, 3347, 3348, 3349, 3350, 3351, 3352, 3353, 3354
 3355, 3356, 3357, 3358, 3359, 3360, 3361, 3362, 3363, 3364, 3365, 3366, 3367, 3368, 3369, 3370
 3371, 3372, 3373, 3374, 3375, 3376, 3377, 3378, 3380, 3381, 3382, 3383, 3384, 3385, 3386, 3387
 3388, 3389, 3390, 3391, 3392, 3393, 3394, 3395, 3396, 3397, 3398, 3399, 3400, 3401, 3402, 3403
 3404, 3405, 3406, 3407, 3408, 3409, 3410, 3411, 3412, 3413, 3414, 3415, 3416, 3417, 3418, 3419
 3420, 3421, 3422, 3423, 3424, 3425, 3426, 3427, 3428, 3429, 3430, 3431, 3432, 3433, 3434, 3435
 3436, 3437, 3438, 3439, 3440, 3441, 3442, 3443, 3444, 3445, 3446, 3447, 3448, 3449, 3450, 3451
 3452, 3453, 3454, 3455, 3456, 3457, 3458, 3459, 3460, 3461, 3462, 3463, 3464, 3465, 3466, 3467
 3468, 3469, 3470, 3471, 3472, 3473, 3474, 3475, 3476, 3477, 3478, 3479, 3480, 3481, 3482, 3483
 3484, 3485, 3486, 3487, 3489, 3490, 3491, 3492, 3493, 3494, 3495, 3496, 3497, 3498, 3499, 3500
 3501, 3502, 3503, 3504, 3505, 3506, 3507, 3508, 3509, 3510, 3511, 3512, 3513, 3514, 3515, 3516
 3517, 3518, 3519, 3520, 3521, 3522, 3523, 3524, 3525, 3526, 3527, 3528, 3529, 3530, 3531, 3532
 3533, 3534, 3535, 3536, 3537, 3538, 3539, 3540, 3541, 3542, 3543, 3544, 3545, 3546, 3547, 3548
 3549, 3550, 3551, 3552, 3553, 3554, 3555, 3556, 3557, 3558, 3559, 3560, 3561, 3562, 3563, 3564
 3565, 3566, 3567, 3568, 3569, 3570, 3571, 3572, 3573, 3574, 3575, 3576, 3577, 3578, 3579, 3580
 3581, 3582, 3583, 3584, 3585, 3586, 3587, 3588, 3589, 3590, 3591, 3592, 3593, 3594, 3595, 3596
 3598, 3599, 3600, 3601, 3602, 3603, 3604, 3605, 3606, 3607, 3608, 3609, 3610, 3611, 3612, 3613
 3614, 3615, 3616, 3617, 3618, 3619, 3620, 3621, 3622, 3623, 3624, 3625, 3626, 3627, 3628, 3629
 3630, 3631, 3632, 3633, 3634, 3635, 3636, 3637, 3638, 3639, 3640, 3641, 3642, 3643, 3644, 3645
 3646, 3647, 3648, 3649, 3650, 3651, 3652, 3653, 3654, 3655, 3656, 3657, 3658, 3659, 3660, 3661
 3662, 3663, 3664, 3665, 3666, 3667, 3668, 3669, 3670, 3671, 3672, 3673, 3674, 3675, 3676, 3677
 3678, 3679, 3680, 3681, 3682, 3683, 3684, 3685, 3686, 3687, 3688, 3689, 3690, 3691, 3692, 3693
 3694, 3695, 3696, 3697, 3698, 3699, 3700, 3701, 3702, 3703, 3704, 3705, 3707, 3708, 3709, 3710
 3711, 3712, 3713, 3714, 3715, 3716, 3717, 3718, 3719, 3720, 3721, 3722, 3723, 3724, 3725, 3726
 3727, 3728, 3729, 3730, 3731, 3732, 3733, 3734, 3735, 3736, 3737, 3738, 3739, 3740, 3741, 3742
 3743, 3744, 3745, 3746, 3747, 3748, 3749, 3750, 3751, 3752, 3753, 3754, 3755, 3756, 3757, 3758
 3759, 3760, 3761, 3762, 3763, 3764, 3765, 3766, 3767, 3768, 3769, 3770, 3771, 3772, 3773, 3774
 3775, 3776, 3777, 3778, 3779, 3780, 3781, 3782, 3783, 3784, 3785, 3786, 3787, 3788, 3789, 3790
 3791, 3792, 3793, 3794, 3795, 3796, 3797, 3798, 3799, 3800, 3801, 3802, 3803, 3804, 3805, 3806
 3807, 3808, 3809, 3810, 3811, 3812, 3813, 3814
*Elset, elset=P1
    1,    2,    3,    4,    5,    6,    7,    8,    9,   10,   11,   12,   13,   14,   15,   16
   17,   18,   19,   20,   21,   22,   23,   24,   25,   26,   27,   28,   29,   30,   31,   32
   33,   34,   35,   36,   37,   38,   39,   40,   41,   42,   43,   44,   45,   46,   47,   48
   49,   50,   51,   52,   53,   54,   55,   56,   57,   58,   59,   60,   61,   62,   63,   64
   65,   66,   67,   68,   69,   70,   71,   72,   73,   74,   75,   76,   77,   78,   79,   80
   81,   82,   83,   84,   85,   86,   87,   88,   89,   90,   91,   92,   93,   94,   95,   96
   97,   98,   99,  100,  101,  102,  103,  104,  105,  106,  107,  108,  109,  218,  327,  436
  545,  654,  763,  872,  981, 1090, 1199, 1308, 1417, 1526, 1635, 1744, 1853, 1962, 2071, 2180
 2289, 2398, 2507, 2616, 2725, 2834, 2943, 3052, 3161, 3270, 3379, 3488, 3597, 3706, 3815, 3816
 3817, 3818, 3819, 3820, 3821, 3822, 3823, 3824, 3825, 3826, 3827, 3828, 3829, 3830, 3831, 3832
 3833, 3834, 3835, 3836, 3837, 3838, 3839, 3840, 3841, 3842, 3843, 3844, 3845, 3846, 3847, 3848
 3849, 3850, 3851, 3852, 3853, 3854, 3855, 3856, 3857, 3858, 3859, 3860, 3861, 3862, 3863, 3864
 3865, 3866, 3867, 3868, 3869, 3870, 3871, 3872, 3873, 3874, 3875, 3876, 3877, 3878, 3879, 3880
 3881, 3882, 3883, 3884, 3885, 3886, 3887, 3888, 3889, 3890, 3891, 3892, 3893, 3894, 3895, 3896
 3897, 3898, 3899, 3900, 3901, 3902, 3903, 3904, 3905, 3906, 3907, 3908, 3909, 3910, 3911, 3912
 3913, 3914, 3915, 3916, 3917, 3918, 3919, 3920, 3921, 3922, 3923, 3924
** Section: Section-1-P1
*Solid Section, elset=P1, material=MAT11
1.,
** Section: Section-2-DESIGN_ELEM
*Solid Section, elset=DESIGN_ELEM, material=MAT11
1.,
*End Part
**  
**
** ASSEMBLY
**
*Assembly, name=Assembly
**  
*Instance, name=PART-1-1, part=PART-1
*End Instance
**  
*Nset, nset=FORCE1, instance=PART-1-1
 109, 110
*Elset, elset=FROZEN_ELEMENTS, instance=PART-1-1
    1,    2,    3,    4,    5,    6,    7,    8,    9,   10,   11,   12,   13,   14,   15,   16
   17,   18,   19,   20,   21,   22,   23,   24,   25,   26,   27,   28,   29,   30,   31,   32
   33,   34,   35,   36,   37,   38,   39,   40,   41,   42,   43,   44,   45,   46,   47,   48
   49,   50,   51,   52,   53,   54,   55,   56,   57,   58,   59,   60,   61,   62,   63,   64
   65,   66,   67,   68,   69,   70,   71,   72,   73,   74,   75,   76,   77,   78,   79,   80
   81,   82,   83,   84,   85,   86,   87,   88,   89,   90,   91,   92,   93,   94,   95,   96
   97,   98,   99,  100,  101,  102,  103,  104,  105,  106,  107,  108,  109,  218,  327,  436
  545,  654,  763,  872,  981, 1090, 1199, 1308, 1417, 1526, 1635, 1744, 1853, 1962, 2071, 2180
 2289, 2398, 2507, 2616, 2725, 2834, 2943, 3052, 3161, 3270, 3379, 3488, 3597, 3706, 3815, 3816
 3817, 3818, 3819, 3820, 3821, 3822, 3823, 3824, 3825, 3826, 3827, 3828, 3829, 3830, 3831, 3832
 3833, 3834, 3835, 3836, 3837, 3838, 3839, 3840, 3841, 3842, 3843, 3844, 3845, 3846, 3847, 3848
 3849, 3850, 3851, 3852, 3853, 3854, 3855, 3856, 3857, 3858, 3859, 3860, 3861, 3862, 3863, 3864
 3865, 3866, 3867, 3868, 3869, 3870, 3871, 3872, 3873, 3874, 3875, 3876, 3877, 3878, 3879, 3880
 3881, 3882, 3883, 3884, 3885, 3886, 3887, 3888, 3889, 3890, 3891, 3892, 3893, 3894, 3895, 3896
 3897, 3898, 3899, 3900, 3901, 3902, 3903, 3904, 3905, 3906, 3907, 3908, 3909, 3910, 3911, 3912
 3913, 3914, 3915, 3916, 3917, 3918, 3919, 3920, 3921, 3922, 3923, 3924
*Nset, nset=SPC11, instance=PART-1-1
 3961,
*Nset, nset=SPC13, instance=PART-1-1, generate
    1,  3851,   110
*End Assembly
** 
** MATERIALS
** 
**  mat11
** 
*Material, name=MAT11
*Elastic
210000., 0.3
** ----------------------------------------------------------------
** 
** STEP: Step-1
** 
*Step, name=Step-1, nlgeom=NO, perturbation
*Static
** 
** BOUNDARY CONDITIONS
** 
** Name: Disp-BC-1 Type: Displacement/Rotation
*Boundary
SPC11, 1, 1
** Name: Disp-BC-2 Type: Displacement/Rotation
*Boundary
SPC11, 2, 2
** Name: Disp-BC-3 Type: Displacement/Rotation
*Boundary
SPC13, 1, 1
** 
** LOADS
** 
** Name: CFORCE-1   Type: Concentrated force
*Cload
FORCE1, 2, 39.9089
** 
** OUTPUT REQUESTS
** 
** 
** FIELD OUTPUT: F-Output-1
** 
*Output, field, variable=PRESELECT
** 
** HISTORY OUTPUT: H-Output-1
** 
*Output, history, variable=PRESELECT
*End Step
